p cnf 215 642
-1 -2 3 0
1 2 -3 0
-1 -4 5 0
1 4 -5 0
-3 -6 5 0
3 6 -5 0
-2 -6 4 0
2 6 -4 0
-7 -8 9 0
7 8 -9 0
-7 -10 11 0
7 10 -11 0
-9 -12 11 0
9 12 -11 0
-8 -12 10 0
8 12 -10 0
-13 -14 15 0
13 14 -15 0
-13 -16 17 0
13 16 -17 0
-15 -18 17 0
15 18 -17 0
-14 -18 16 0
14 18 -16 0
-19 -20 21 0
19 20 -21 0
-19 -22 23 0
19 22 -23 0
-21 -24 23 0
21 24 -23 0
-20 -24 22 0
20 24 -22 0
-25 -26 27 0
25 26 -27 0
-25 -28 29 0
25 28 -29 0
-27 -30 29 0
27 30 -29 0
-26 -30 28 0
26 30 -28 0
-31 -32 33 0
31 32 -33 0
-31 -34 35 0
31 34 -35 0
-33 -36 35 0
33 36 -35 0
-32 -36 34 0
32 36 -34 0
-37 -38 39 0
37 38 -39 0
-37 -40 41 0
37 40 -41 0
-39 -42 41 0
39 42 -41 0
-38 -42 40 0
38 42 -40 0
-43 -44 45 0
43 44 -45 0
-43 -46 47 0
43 46 -47 0
-45 -48 47 0
45 48 -47 0
-44 -48 46 0
44 48 -46 0
-49 1 -31 0
-49 3 -39 0
-49 5 -47 0
-49 -7 25 0
-49 8 -38 0
-49 10 -46 0
-49 -15 27 0
-49 -14 32 0
-49 18 -48 0
-49 -23 29 0
-49 -22 34 0
-49 -24 42 0
-50 1 -31 0
-50 3 -41 0
-50 5 -45 0
-50 -7 25 0
-50 8 -40 0
-50 10 -44 0
-50 -17 27 0
-50 -16 32 0
-50 -18 -42 0
-50 -21 29 0
-50 -20 34 0
-50 24 48 0
-51 1 -33 0
-51 3 -37 0
-51 5 -47 0
-51 -9 25 0
-51 -8 -32 0
-51 12 -46 0
-51 -13 27 0
-51 14 38 0
-51 16 -48 0
-51 -23 29 0
-51 -22 36 0
-51 -24 40 0
-52 1 -35 0
-52 3 -37 0
-52 5 -45 0
-52 -9 25 0
-52 -8 -34 0
-52 12 -44 0
-52 -17 27 0
-52 -16 -36 0
-52 -18 38 0
-52 -19 29 0
-52 20 40 0
-52 22 48 0
-53 1 -33 0
-53 3 -41 0
-53 5 -43 0
-53 -11 25 0
-53 -10 -32 0
-53 -12 -40 0
-53 -13 27 0
-53 14 -42 0
-53 16 44 0
-53 -21 29 0
-53 -20 36 0
-53 24 46 0
-54 1 -35 0
-54 3 -39 0
-54 5 -43 0
-54 -11 25 0
-54 -10 -34 0
-54 -12 -38 0
-54 -15 27 0
-54 -14 -36 0
-54 18 44 0
-54 -19 29 0
-54 20 42 0
-54 22 46 0
-55 -1 -25 0
-55 2 -39 0
-55 4 -47 0
-55 7 31 0
-55 9 -38 0
-55 11 -46 0
-55 -15 26 0
-55 -14 33 0
-55 18 -48 0
-55 -23 28 0
-55 -22 35 0
-55 -24 42 0
-56 -1 -25 0
-56 2 -41 0
-56 4 -45 0
-56 7 31 0
-56 9 -40 0
-56 11 -44 0
-56 -17 26 0
-56 -16 33 0
-56 -18 -42 0
-56 -21 28 0
-56 -20 35 0
-56 24 48 0
-57 -1 -27 0
-57 2 -37 0
-57 4 -47 0
-57 -9 -26 0
-57 -8 31 0
-57 12 -46 0
-57 13 33 0
-57 15 38 0
-57 17 -48 0
-57 -23 30 0
-57 -22 35 0
-57 -24 40 0
-58 -1 -29 0
-58 2 -37 0
-58 4 -45 0
-58 -9 -28 0
-58 -8 31 0
-58 12 -44 0
-58 -17 -30 0
-58 -16 33 0
-58 -18 38 0
-58 19 35 0
-58 21 40 0
-58 23 48 0
-59 -1 -27 0
-59 2 -41 0
-59 4 -43 0
-59 -11 -26 0
-59 -10 31 0
-59 -12 -40 0
-59 13 33 0
-59 15 -42 0
-59 17 44 0
-59 -21 30 0
-59 -20 35 0
-59 24 46 0
-60 -1 -29 0
-60 2 -39 0
-60 4 -43 0
-60 -11 -28 0
-60 -10 31 0
-60 -12 -38 0
-60 -15 -30 0
-60 -14 33 0
-60 18 44 0
-60 19 35 0
-60 21 42 0
-60 23 46 0
-61 -3 -25 0
-61 -2 -33 0
-61 6 -47 0
-61 7 -32 0
-61 9 37 0
-61 11 -46 0
-61 -13 26 0
-61 14 39 0
-61 16 -48 0
-61 -23 28 0
-61 -22 36 0
-61 -24 41 0
-62 -3 -25 0
-62 -2 -35 0
-62 6 -45 0
-62 7 -34 0
-62 9 37 0
-62 11 -44 0
-62 -17 26 0
-62 -16 -36 0
-62 -18 39 0
-62 -19 28 0
-62 20 41 0
-62 22 48 0
-63 -3 -27 0
-63 -2 -31 0
-63 6 -47 0
-63 -7 -26 0
-63 8 37 0
-63 10 -46 0
-63 13 32 0
-63 15 39 0
-63 17 -48 0
-63 -23 30 0
-63 -22 34 0
-63 -24 41 0
-64 -3 -29 0
-64 -2 -31 0
-64 6 -45 0
-64 -7 -28 0
-64 8 37 0
-64 10 -44 0
-64 -17 -30 0
-64 -16 32 0
-64 -18 39 0
-64 19 34 0
-64 21 41 0
-64 23 48 0
-65 -3 -27 0
-65 -2 -35 0
-65 6 -43 0
-65 -11 -26 0
-65 -10 -34 0
-65 -12 37 0
-65 13 -36 0
-65 15 39 0
-65 17 44 0
-65 -19 30 0
-65 20 41 0
-65 22 46 0
-66 -3 -29 0
-66 -2 -33 0
-66 6 -43 0
-66 -11 -28 0
-66 -10 -32 0
-66 -12 37 0
-66 -13 -30 0
-66 14 39 0
-66 16 44 0
-66 19 36 0
-66 21 41 0
-66 23 46 0
-67 -5 -25 0
-67 -4 -33 0
-67 -6 -41 0
-67 7 -32 0
-67 9 -40 0
-67 11 43 0
-67 -13 26 0
-67 14 -42 0
-67 16 45 0
-67 -21 28 0
-67 -20 36 0
-67 24 47 0
-68 -5 -25 0
-68 -4 -35 0
-68 -6 -39 0
-68 7 -34 0
-68 9 -38 0
-68 11 43 0
-68 -15 26 0
-68 -14 -36 0
-68 18 45 0
-68 -19 28 0
-68 20 42 0
-68 22 47 0
-69 -5 -27 0
-69 -4 -31 0
-69 -6 -41 0
-69 -7 -26 0
-69 8 -40 0
-69 10 43 0
-69 13 32 0
-69 15 -42 0
-69 17 45 0
-69 -21 30 0
-69 -20 34 0
-69 24 47 0
-70 -5 -29 0
-70 -4 -31 0
-70 -6 -39 0
-70 -7 -28 0
-70 8 -38 0
-70 10 43 0
-70 -15 -30 0
-70 -14 32 0
-70 18 45 0
-70 19 34 0
-70 21 42 0
-70 23 47 0
-71 -5 -27 0
-71 -4 -35 0
-71 -6 -37 0
-71 -9 -26 0
-71 -8 -34 0
-71 12 43 0
-71 13 -36 0
-71 15 38 0
-71 17 45 0
-71 -19 30 0
-71 20 40 0
-71 22 47 0
-72 -5 -29 0
-72 -4 -33 0
-72 -6 -37 0
-72 -9 -28 0
-72 -8 -32 0
-72 12 43 0
-72 -13 -30 0
-72 14 38 0
-72 16 45 0
-72 19 36 0
-72 21 40 0
-72 23 47 0
1 0
3 0
5 0
2 0
4 0
6 0
49 73 0
-73 74 0
50 -73 75 0
-75 76 0
51 -75 77 0
-77 78 0
52 -77 79 0
-79 80 0
53 -79 81 0
-81 82 0
54 -81 83 0
-83 84 0
55 -83 85 0
-85 86 0
56 -85 87 0
-87 88 0
57 -87 89 0
-89 90 0
58 -89 91 0
-91 92 0
59 -91 93 0
-93 94 0
60 -93 95 0
-95 96 0
61 -95 97 0
-97 98 0
62 -97 0
50 74 0
-74 99 0
51 -74 76 0
-76 100 0
52 -76 78 0
-78 101 0
53 -78 80 0
-80 102 0
54 -80 82 0
-82 103 0
55 -82 84 0
-84 104 0
56 -84 86 0
-86 105 0
57 -86 88 0
-88 106 0
58 -88 90 0
-90 107 0
59 -90 92 0
-92 108 0
60 -92 94 0
-94 109 0
61 -94 96 0
-96 110 0
62 -96 98 0
-98 111 0
63 -98 0
51 99 0
-99 112 0
52 -99 100 0
-100 113 0
53 -100 101 0
-101 114 0
54 -101 102 0
-102 115 0
55 -102 103 0
-103 116 0
56 -103 104 0
-104 117 0
57 -104 105 0
-105 118 0
58 -105 106 0
-106 119 0
59 -106 107 0
-107 120 0
60 -107 108 0
-108 121 0
61 -108 109 0
-109 122 0
62 -109 110 0
-110 123 0
63 -110 111 0
-111 124 0
64 -111 0
52 112 0
-112 125 0
53 -112 113 0
-113 126 0
54 -113 114 0
-114 127 0
55 -114 115 0
-115 128 0
56 -115 116 0
-116 129 0
57 -116 117 0
-117 130 0
58 -117 118 0
-118 131 0
59 -118 119 0
-119 132 0
60 -119 120 0
-120 133 0
61 -120 121 0
-121 134 0
62 -121 122 0
-122 135 0
63 -122 123 0
-123 136 0
64 -123 124 0
-124 137 0
65 -124 0
53 125 0
-125 138 0
54 -125 126 0
-126 139 0
55 -126 127 0
-127 140 0
56 -127 128 0
-128 141 0
57 -128 129 0
-129 142 0
58 -129 130 0
-130 143 0
59 -130 131 0
-131 144 0
60 -131 132 0
-132 145 0
61 -132 133 0
-133 146 0
62 -133 134 0
-134 147 0
63 -134 135 0
-135 148 0
64 -135 136 0
-136 149 0
65 -136 137 0
-137 150 0
66 -137 0
54 138 0
-138 151 0
55 -138 139 0
-139 152 0
56 -139 140 0
-140 153 0
57 -140 141 0
-141 154 0
58 -141 142 0
-142 155 0
59 -142 143 0
-143 156 0
60 -143 144 0
-144 157 0
61 -144 145 0
-145 158 0
62 -145 146 0
-146 159 0
63 -146 147 0
-147 160 0
64 -147 148 0
-148 161 0
65 -148 149 0
-149 162 0
66 -149 150 0
-150 163 0
67 -150 0
55 151 0
-151 164 0
56 -151 152 0
-152 165 0
57 -152 153 0
-153 166 0
58 -153 154 0
-154 167 0
59 -154 155 0
-155 168 0
60 -155 156 0
-156 169 0
61 -156 157 0
-157 170 0
62 -157 158 0
-158 171 0
63 -158 159 0
-159 172 0
64 -159 160 0
-160 173 0
65 -160 161 0
-161 174 0
66 -161 162 0
-162 175 0
67 -162 163 0
-163 176 0
68 -163 0
56 164 0
-164 177 0
57 -164 165 0
-165 178 0
58 -165 166 0
-166 179 0
59 -166 167 0
-167 180 0
60 -167 168 0
-168 181 0
61 -168 169 0
-169 182 0
62 -169 170 0
-170 183 0
63 -170 171 0
-171 184 0
64 -171 172 0
-172 185 0
65 -172 173 0
-173 186 0
66 -173 174 0
-174 187 0
67 -174 175 0
-175 188 0
68 -175 176 0
-176 189 0
69 -176 0
57 177 0
-177 190 0
58 -177 178 0
-178 191 0
59 -178 179 0
-179 192 0
60 -179 180 0
-180 193 0
61 -180 181 0
-181 194 0
62 -181 182 0
-182 195 0
63 -182 183 0
-183 196 0
64 -183 184 0
-184 197 0
65 -184 185 0
-185 198 0
66 -185 186 0
-186 199 0
67 -186 187 0
-187 200 0
68 -187 188 0
-188 201 0
69 -188 189 0
-189 202 0
70 -189 0
58 190 0
-190 203 0
59 -190 191 0
-191 204 0
60 -191 192 0
-192 205 0
61 -192 193 0
-193 206 0
62 -193 194 0
-194 207 0
63 -194 195 0
-195 208 0
64 -195 196 0
-196 209 0
65 -196 197 0
-197 210 0
66 -197 198 0
-198 211 0
67 -198 199 0
-199 212 0
68 -199 200 0
-200 213 0
69 -200 201 0
-201 214 0
70 -201 202 0
-202 215 0
71 -202 0
59 203 0
60 -203 204 0
61 -204 205 0
62 -205 206 0
63 -206 207 0
64 -207 208 0
65 -208 209 0
66 -209 210 0
67 -210 211 0
68 -211 212 0
69 -212 213 0
70 -213 214 0
71 -214 215 0
72 -215 0
