p cnf 1971 6026
-1 -2 3 0
1 2 -3 0
-1 -4 5 0
1 4 -5 0
-1 -6 7 0
1 6 -7 0
-3 -8 5 0
3 8 -5 0
-3 -9 7 0
3 9 -7 0
-5 -10 7 0
5 10 -7 0
-2 -8 4 0
2 8 -4 0
-2 -9 6 0
2 9 -6 0
-4 -10 6 0
4 10 -6 0
-8 -10 9 0
8 10 -9 0
-11 -12 13 0
11 12 -13 0
-11 -14 15 0
11 14 -15 0
-11 -16 17 0
11 16 -17 0
-13 -18 15 0
13 18 -15 0
-13 -19 17 0
13 19 -17 0
-15 -20 17 0
15 20 -17 0
-12 -18 14 0
12 18 -14 0
-12 -19 16 0
12 19 -16 0
-14 -20 16 0
14 20 -16 0
-18 -20 19 0
18 20 -19 0
-21 -22 23 0
21 22 -23 0
-21 -24 25 0
21 24 -25 0
-21 -26 27 0
21 26 -27 0
-23 -28 25 0
23 28 -25 0
-23 -29 27 0
23 29 -27 0
-25 -30 27 0
25 30 -27 0
-22 -28 24 0
22 28 -24 0
-22 -29 26 0
22 29 -26 0
-24 -30 26 0
24 30 -26 0
-28 -30 29 0
28 30 -29 0
-31 -32 33 0
31 32 -33 0
-31 -34 35 0
31 34 -35 0
-31 -36 37 0
31 36 -37 0
-33 -38 35 0
33 38 -35 0
-33 -39 37 0
33 39 -37 0
-35 -40 37 0
35 40 -37 0
-32 -38 34 0
32 38 -34 0
-32 -39 36 0
32 39 -36 0
-34 -40 36 0
34 40 -36 0
-38 -40 39 0
38 40 -39 0
-41 -42 43 0
41 42 -43 0
-41 -44 45 0
41 44 -45 0
-41 -46 47 0
41 46 -47 0
-43 -48 45 0
43 48 -45 0
-43 -49 47 0
43 49 -47 0
-45 -50 47 0
45 50 -47 0
-42 -48 44 0
42 48 -44 0
-42 -49 46 0
42 49 -46 0
-44 -50 46 0
44 50 -46 0
-48 -50 49 0
48 50 -49 0
-51 -52 53 0
51 52 -53 0
-51 -54 55 0
51 54 -55 0
-51 -56 57 0
51 56 -57 0
-53 -58 55 0
53 58 -55 0
-53 -59 57 0
53 59 -57 0
-55 -60 57 0
55 60 -57 0
-52 -58 54 0
52 58 -54 0
-52 -59 56 0
52 59 -56 0
-54 -60 56 0
54 60 -56 0
-58 -60 59 0
58 60 -59 0
-61 -62 63 0
61 62 -63 0
-61 -64 65 0
61 64 -65 0
-61 -66 67 0
61 66 -67 0
-63 -68 65 0
63 68 -65 0
-63 -69 67 0
63 69 -67 0
-65 -70 67 0
65 70 -67 0
-62 -68 64 0
62 68 -64 0
-62 -69 66 0
62 69 -66 0
-64 -70 66 0
64 70 -66 0
-68 -70 69 0
68 70 -69 0
-71 -72 73 0
71 72 -73 0
-71 -74 75 0
71 74 -75 0
-71 -76 77 0
71 76 -77 0
-73 -78 75 0
73 78 -75 0
-73 -79 77 0
73 79 -77 0
-75 -80 77 0
75 80 -77 0
-72 -78 74 0
72 78 -74 0
-72 -79 76 0
72 79 -76 0
-74 -80 76 0
74 80 -76 0
-78 -80 79 0
78 80 -79 0
-81 -82 83 0
81 82 -83 0
-81 -84 85 0
81 84 -85 0
-81 -86 87 0
81 86 -87 0
-83 -88 85 0
83 88 -85 0
-83 -89 87 0
83 89 -87 0
-85 -90 87 0
85 90 -87 0
-82 -88 84 0
82 88 -84 0
-82 -89 86 0
82 89 -86 0
-84 -90 86 0
84 90 -86 0
-88 -90 89 0
88 90 -89 0
-91 -92 93 0
91 92 -93 0
-91 -94 95 0
91 94 -95 0
-91 -96 97 0
91 96 -97 0
-93 -98 95 0
93 98 -95 0
-93 -99 97 0
93 99 -97 0
-95 -100 97 0
95 100 -97 0
-92 -98 94 0
92 98 -94 0
-92 -99 96 0
92 99 -96 0
-94 -100 96 0
94 100 -96 0
-98 -100 99 0
98 100 -99 0
-101 1 -61 0
-101 3 -73 0
-101 5 -85 0
-101 7 -97 0
-101 -11 51 0
-101 12 -72 0
-101 14 -84 0
-101 16 -96 0
-101 -23 53 0
-101 -22 62 0
-101 28 -88 0
-101 29 -99 0
-101 -35 55 0
-101 -34 64 0
-101 -38 78 0
-101 40 -100 0
-101 -47 57 0
-101 -46 66 0
-101 -49 79 0
-101 -50 90 0
-102 1 -61 0
-102 3 -73 0
-102 5 -87 0
-102 7 -95 0
-102 -11 51 0
-102 12 -72 0
-102 14 -86 0
-102 16 -94 0
-102 -23 53 0
-102 -22 62 0
-102 28 -89 0
-102 29 -98 0
-102 -37 55 0
-102 -36 64 0
-102 -39 78 0
-102 -40 -90 0
-102 -45 57 0
-102 -44 66 0
-102 -48 79 0
-102 50 100 0
-103 1 -61 0
-103 3 -75 0
-103 5 -83 0
-103 7 -97 0
-103 -11 51 0
-103 12 -74 0
-103 14 -82 0
-103 16 -96 0
-103 -25 53 0
-103 -24 62 0
-103 -28 -78 0
-103 30 -99 0
-103 -33 55 0
-103 -32 64 0
-103 38 88 0
-103 39 -100 0
-103 -47 57 0
-103 -46 66 0
-103 -49 80 0
-103 -50 89 0
-104 1 -61 0
-104 3 -77 0
-104 5 -83 0
-104 7 -95 0
-104 -11 51 0
-104 12 -76 0
-104 14 -82 0
-104 16 -94 0
-104 -25 53 0
-104 -24 62 0
-104 -28 -79 0
-104 30 -98 0
-104 -37 55 0
-104 -36 64 0
-104 -39 -80 0
-104 -40 88 0
-104 -43 57 0
-104 -42 66 0
-104 48 89 0
-104 49 100 0
-105 1 -61 0
-105 3 -75 0
-105 5 -87 0
-105 7 -93 0
-105 -11 51 0
-105 12 -74 0
-105 14 -86 0
-105 16 -92 0
-105 -27 53 0
-105 -26 62 0
-105 -29 -78 0
-105 -30 -89 0
-105 -33 55 0
-105 -32 64 0
-105 38 -90 0
-105 39 98 0
-105 -45 57 0
-105 -44 66 0
-105 -48 80 0
-105 50 99 0
-106 1 -61 0
-106 3 -77 0
-106 5 -85 0
-106 7 -93 0
-106 -11 51 0
-106 12 -76 0
-106 14 -84 0
-106 16 -92 0
-106 -27 53 0
-106 -26 62 0
-106 -29 -79 0
-106 -30 -88 0
-106 -35 55 0
-106 -34 64 0
-106 -38 -80 0
-106 40 98 0
-106 -43 57 0
-106 -42 66 0
-106 48 90 0
-106 49 99 0
-107 1 -63 0
-107 3 -71 0
-107 5 -85 0
-107 7 -97 0
-107 -13 51 0
-107 -12 -62 0
-107 18 -84 0
-107 19 -96 0
-107 -21 53 0
-107 22 72 0
-107 24 -88 0
-107 26 -99 0
-107 -35 55 0
-107 -34 68 0
-107 -38 74 0
-107 40 -100 0
-107 -47 57 0
-107 -46 69 0
-107 -49 76 0
-107 -50 90 0
-108 1 -63 0
-108 3 -71 0
-108 5 -87 0
-108 7 -95 0
-108 -13 51 0
-108 -12 -62 0
-108 18 -86 0
-108 19 -94 0
-108 -21 53 0
-108 22 72 0
-108 24 -89 0
-108 26 -98 0
-108 -37 55 0
-108 -36 68 0
-108 -39 74 0
-108 -40 -90 0
-108 -45 57 0
-108 -44 69 0
-108 -48 76 0
-108 50 100 0
-109 1 -65 0
-109 3 -71 0
-109 5 -83 0
-109 7 -97 0
-109 -13 51 0
-109 -12 -64 0
-109 18 -82 0
-109 19 -96 0
-109 -25 53 0
-109 -24 -68 0
-109 -28 72 0
-109 30 -99 0
-109 -31 55 0
-109 32 74 0
-109 34 88 0
-109 36 -100 0
-109 -47 57 0
-109 -46 70 0
-109 -49 76 0
-109 -50 89 0
-110 1 -67 0
-110 3 -71 0
-110 5 -83 0
-110 7 -95 0
-110 -13 51 0
-110 -12 -66 0
-110 18 -82 0
-110 19 -94 0
-110 -25 53 0
-110 -24 -69 0
-110 -28 72 0
-110 30 -98 0
-110 -37 55 0
-110 -36 -70 0
-110 -39 74 0
-110 -40 88 0
-110 -41 57 0
-110 42 76 0
-110 44 89 0
-110 46 100 0
-111 1 -65 0
-111 3 -71 0
-111 5 -87 0
-111 7 -93 0
-111 -13 51 0
-111 -12 -64 0
-111 18 -86 0
-111 19 -92 0
-111 -27 53 0
-111 -26 -68 0
-111 -29 72 0
-111 -30 -89 0
-111 -31 55 0
-111 32 74 0
-111 34 -90 0
-111 36 98 0
-111 -45 57 0
-111 -44 70 0
-111 -48 76 0
-111 50 99 0
-112 1 -67 0
-112 3 -71 0
-112 5 -85 0
-112 7 -93 0
-112 -13 51 0
-112 -12 -66 0
-112 18 -84 0
-112 19 -92 0
-112 -27 53 0
-112 -26 -69 0
-112 -29 72 0
-112 -30 -88 0
-112 -35 55 0
-112 -34 -70 0
-112 -38 74 0
-112 40 98 0
-112 -41 57 0
-112 42 76 0
-112 44 90 0
-112 46 99 0
-113 1 -63 0
-113 3 -75 0
-113 5 -81 0
-113 7 -97 0
-113 -15 51 0
-113 -14 -62 0
-113 -18 -74 0
-113 20 -96 0
-113 -21 53 0
-113 22 -78 0
-113 24 82 0
-113 26 -99 0
-113 -33 55 0
-113 -32 68 0
-113 38 84 0
-113 39 -100 0
-113 -47 57 0
-113 -46 69 0
-113 -49 80 0
-113 -50 86 0
-114 1 -63 0
-114 3 -77 0
-114 5 -81 0
-114 7 -95 0
-114 -15 51 0
-114 -14 -62 0
-114 -18 -76 0
-114 20 -94 0
-114 -21 53 0
-114 22 -79 0
-114 24 82 0
-114 26 -98 0
-114 -37 55 0
-114 -36 68 0
-114 -39 -80 0
-114 -40 84 0
-114 -43 57 0
-114 -42 69 0
-114 48 86 0
-114 49 100 0
-115 1 -65 0
-115 3 -73 0
-115 5 -81 0
-115 7 -97 0
-115 -15 51 0
-115 -14 -64 0
-115 -18 -72 0
-115 20 -96 0
-115 -23 53 0
-115 -22 -68 0
-115 28 82 0
-115 29 -99 0
-115 -31 55 0
-115 32 78 0
-115 34 84 0
-115 36 -100 0
-115 -47 57 0
-115 -46 70 0
-115 -49 79 0
-115 -50 86 0
-116 1 -67 0
-116 3 -73 0
-116 5 -81 0
-116 7 -95 0
-116 -15 51 0
-116 -14 -66 0
-116 -18 -72 0
-116 20 -94 0
-116 -23 53 0
-116 -22 -69 0
-116 28 82 0
-116 29 -98 0
-116 -37 55 0
-116 -36 -70 0
-116 -39 78 0
-116 -40 84 0
-116 -41 57 0
-116 42 79 0
-116 44 86 0
-116 46 100 0
-117 1 -65 0
-117 3 -77 0
-117 5 -81 0
-117 7 -93 0
-117 -15 51 0
-117 -14 -64 0
-117 -18 -76 0
-117 20 -92 0
-117 -27 53 0
-117 -26 -68 0
-117 -29 -79 0
-117 -30 82 0
-117 -31 55 0
-117 32 -80 0
-117 34 84 0
-117 36 98 0
-117 -43 57 0
-117 -42 70 0
-117 48 86 0
-117 49 99 0
-118 1 -67 0
-118 3 -75 0
-118 5 -81 0
-118 7 -93 0
-118 -15 51 0
-118 -14 -66 0
-118 -18 -74 0
-118 20 -92 0
-118 -27 53 0
-118 -26 -69 0
-118 -29 -78 0
-118 -30 82 0
-118 -33 55 0
-118 -32 -70 0
-118 38 84 0
-118 39 98 0
-118 -41 57 0
-118 42 80 0
-118 44 86 0
-118 46 99 0
-119 1 -63 0
-119 3 -75 0
-119 5 -87 0
-119 7 -91 0
-119 -17 51 0
-119 -16 -62 0
-119 -19 -74 0
-119 -20 -86 0
-119 -21 53 0
-119 22 -78 0
-119 24 -89 0
-119 26 92 0
-119 -33 55 0
-119 -32 68 0
-119 38 -90 0
-119 39 94 0
-119 -45 57 0
-119 -44 69 0
-119 -48 80 0
-119 50 96 0
-120 1 -63 0
-120 3 -77 0
-120 5 -85 0
-120 7 -91 0
-120 -17 51 0
-120 -16 -62 0
-120 -19 -76 0
-120 -20 -84 0
-120 -21 53 0
-120 22 -79 0
-120 24 -88 0
-120 26 92 0
-120 -35 55 0
-120 -34 68 0
-120 -38 -80 0
-120 40 94 0
-120 -43 57 0
-120 -42 69 0
-120 48 90 0
-120 49 96 0
-121 1 -65 0
-121 3 -73 0
-121 5 -87 0
-121 7 -91 0
-121 -17 51 0
-121 -16 -64 0
-121 -19 -72 0
-121 -20 -86 0
-121 -23 53 0
-121 -22 -68 0
-121 28 -89 0
-121 29 92 0
-121 -31 55 0
-121 32 78 0
-121 34 -90 0
-121 36 94 0
-121 -45 57 0
-121 -44 70 0
-121 -48 79 0
-121 50 96 0
-122 1 -67 0
-122 3 -73 0
-122 5 -85 0
-122 7 -91 0
-122 -17 51 0
-122 -16 -66 0
-122 -19 -72 0
-122 -20 -84 0
-122 -23 53 0
-122 -22 -69 0
-122 28 -88 0
-122 29 92 0
-122 -35 55 0
-122 -34 -70 0
-122 -38 78 0
-122 40 94 0
-122 -41 57 0
-122 42 79 0
-122 44 90 0
-122 46 96 0
-123 1 -65 0
-123 3 -77 0
-123 5 -83 0
-123 7 -91 0
-123 -17 51 0
-123 -16 -64 0
-123 -19 -76 0
-123 -20 -82 0
-123 -25 53 0
-123 -24 -68 0
-123 -28 -79 0
-123 30 92 0
-123 -31 55 0
-123 32 -80 0
-123 34 88 0
-123 36 94 0
-123 -43 57 0
-123 -42 70 0
-123 48 89 0
-123 49 96 0
-124 1 -67 0
-124 3 -75 0
-124 5 -83 0
-124 7 -91 0
-124 -17 51 0
-124 -16 -66 0
-124 -19 -74 0
-124 -20 -82 0
-124 -25 53 0
-124 -24 -69 0
-124 -28 -78 0
-124 30 92 0
-124 -33 55 0
-124 -32 -70 0
-124 38 88 0
-124 39 94 0
-124 -41 57 0
-124 42 80 0
-124 44 89 0
-124 46 96 0
-125 -1 -51 0
-125 2 -73 0
-125 4 -85 0
-125 6 -97 0
-125 11 61 0
-125 13 -72 0
-125 15 -84 0
-125 17 -96 0
-125 -23 52 0
-125 -22 63 0
-125 28 -88 0
-125 29 -99 0
-125 -35 54 0
-125 -34 65 0
-125 -38 78 0
-125 40 -100 0
-125 -47 56 0
-125 -46 67 0
-125 -49 79 0
-125 -50 90 0
-126 -1 -51 0
-126 2 -73 0
-126 4 -87 0
-126 6 -95 0
-126 11 61 0
-126 13 -72 0
-126 15 -86 0
-126 17 -94 0
-126 -23 52 0
-126 -22 63 0
-126 28 -89 0
-126 29 -98 0
-126 -37 54 0
-126 -36 65 0
-126 -39 78 0
-126 -40 -90 0
-126 -45 56 0
-126 -44 67 0
-126 -48 79 0
-126 50 100 0
-127 -1 -51 0
-127 2 -75 0
-127 4 -83 0
-127 6 -97 0
-127 11 61 0
-127 13 -74 0
-127 15 -82 0
-127 17 -96 0
-127 -25 52 0
-127 -24 63 0
-127 -28 -78 0
-127 30 -99 0
-127 -33 54 0
-127 -32 65 0
-127 38 88 0
-127 39 -100 0
-127 -47 56 0
-127 -46 67 0
-127 -49 80 0
-127 -50 89 0
-128 -1 -51 0
-128 2 -77 0
-128 4 -83 0
-128 6 -95 0
-128 11 61 0
-128 13 -76 0
-128 15 -82 0
-128 17 -94 0
-128 -25 52 0
-128 -24 63 0
-128 -28 -79 0
-128 30 -98 0
-128 -37 54 0
-128 -36 65 0
-128 -39 -80 0
-128 -40 88 0
-128 -43 56 0
-128 -42 67 0
-128 48 89 0
-128 49 100 0
-129 -1 -51 0
-129 2 -75 0
-129 4 -87 0
-129 6 -93 0
-129 11 61 0
-129 13 -74 0
-129 15 -86 0
-129 17 -92 0
-129 -27 52 0
-129 -26 63 0
-129 -29 -78 0
-129 -30 -89 0
-129 -33 54 0
-129 -32 65 0
-129 38 -90 0
-129 39 98 0
-129 -45 56 0
-129 -44 67 0
-129 -48 80 0
-129 50 99 0
-130 -1 -51 0
-130 2 -77 0
-130 4 -85 0
-130 6 -93 0
-130 11 61 0
-130 13 -76 0
-130 15 -84 0
-130 17 -92 0
-130 -27 52 0
-130 -26 63 0
-130 -29 -79 0
-130 -30 -88 0
-130 -35 54 0
-130 -34 65 0
-130 -38 -80 0
-130 40 98 0
-130 -43 56 0
-130 -42 67 0
-130 48 90 0
-130 49 99 0
-131 -1 -53 0
-131 2 -71 0
-131 4 -85 0
-131 6 -97 0
-131 -13 -52 0
-131 -12 61 0
-131 18 -84 0
-131 19 -96 0
-131 21 63 0
-131 23 72 0
-131 25 -88 0
-131 27 -99 0
-131 -35 58 0
-131 -34 65 0
-131 -38 74 0
-131 40 -100 0
-131 -47 59 0
-131 -46 67 0
-131 -49 76 0
-131 -50 90 0
-132 -1 -53 0
-132 2 -71 0
-132 4 -87 0
-132 6 -95 0
-132 -13 -52 0
-132 -12 61 0
-132 18 -86 0
-132 19 -94 0
-132 21 63 0
-132 23 72 0
-132 25 -89 0
-132 27 -98 0
-132 -37 58 0
-132 -36 65 0
-132 -39 74 0
-132 -40 -90 0
-132 -45 59 0
-132 -44 67 0
-132 -48 76 0
-132 50 100 0
-133 -1 -55 0
-133 2 -71 0
-133 4 -83 0
-133 6 -97 0
-133 -13 -54 0
-133 -12 61 0
-133 18 -82 0
-133 19 -96 0
-133 -25 -58 0
-133 -24 63 0
-133 -28 72 0
-133 30 -99 0
-133 31 65 0
-133 33 74 0
-133 35 88 0
-133 37 -100 0
-133 -47 60 0
-133 -46 67 0
-133 -49 76 0
-133 -50 89 0
-134 -1 -57 0
-134 2 -71 0
-134 4 -83 0
-134 6 -95 0
-134 -13 -56 0
-134 -12 61 0
-134 18 -82 0
-134 19 -94 0
-134 -25 -59 0
-134 -24 63 0
-134 -28 72 0
-134 30 -98 0
-134 -37 -60 0
-134 -36 65 0
-134 -39 74 0
-134 -40 88 0
-134 41 67 0
-134 43 76 0
-134 45 89 0
-134 47 100 0
-135 -1 -55 0
-135 2 -71 0
-135 4 -87 0
-135 6 -93 0
-135 -13 -54 0
-135 -12 61 0
-135 18 -86 0
-135 19 -92 0
-135 -27 -58 0
-135 -26 63 0
-135 -29 72 0
-135 -30 -89 0
-135 31 65 0
-135 33 74 0
-135 35 -90 0
-135 37 98 0
-135 -45 60 0
-135 -44 67 0
-135 -48 76 0
-135 50 99 0
-136 -1 -57 0
-136 2 -71 0
-136 4 -85 0
-136 6 -93 0
-136 -13 -56 0
-136 -12 61 0
-136 18 -84 0
-136 19 -92 0
-136 -27 -59 0
-136 -26 63 0
-136 -29 72 0
-136 -30 -88 0
-136 -35 -60 0
-136 -34 65 0
-136 -38 74 0
-136 40 98 0
-136 41 67 0
-136 43 76 0
-136 45 90 0
-136 47 99 0
-137 -1 -53 0
-137 2 -75 0
-137 4 -81 0
-137 6 -97 0
-137 -15 -52 0
-137 -14 61 0
-137 -18 -74 0
-137 20 -96 0
-137 21 63 0
-137 23 -78 0
-137 25 82 0
-137 27 -99 0
-137 -33 58 0
-137 -32 65 0
-137 38 84 0
-137 39 -100 0
-137 -47 59 0
-137 -46 67 0
-137 -49 80 0
-137 -50 86 0
-138 -1 -53 0
-138 2 -77 0
-138 4 -81 0
-138 6 -95 0
-138 -15 -52 0
-138 -14 61 0
-138 -18 -76 0
-138 20 -94 0
-138 21 63 0
-138 23 -79 0
-138 25 82 0
-138 27 -98 0
-138 -37 58 0
-138 -36 65 0
-138 -39 -80 0
-138 -40 84 0
-138 -43 59 0
-138 -42 67 0
-138 48 86 0
-138 49 100 0
-139 -1 -55 0
-139 2 -73 0
-139 4 -81 0
-139 6 -97 0
-139 -15 -54 0
-139 -14 61 0
-139 -18 -72 0
-139 20 -96 0
-139 -23 -58 0
-139 -22 63 0
-139 28 82 0
-139 29 -99 0
-139 31 65 0
-139 33 78 0
-139 35 84 0
-139 37 -100 0
-139 -47 60 0
-139 -46 67 0
-139 -49 79 0
-139 -50 86 0
-140 -1 -57 0
-140 2 -73 0
-140 4 -81 0
-140 6 -95 0
-140 -15 -56 0
-140 -14 61 0
-140 -18 -72 0
-140 20 -94 0
-140 -23 -59 0
-140 -22 63 0
-140 28 82 0
-140 29 -98 0
-140 -37 -60 0
-140 -36 65 0
-140 -39 78 0
-140 -40 84 0
-140 41 67 0
-140 43 79 0
-140 45 86 0
-140 47 100 0
-141 -1 -55 0
-141 2 -77 0
-141 4 -81 0
-141 6 -93 0
-141 -15 -54 0
-141 -14 61 0
-141 -18 -76 0
-141 20 -92 0
-141 -27 -58 0
-141 -26 63 0
-141 -29 -79 0
-141 -30 82 0
-141 31 65 0
-141 33 -80 0
-141 35 84 0
-141 37 98 0
-141 -43 60 0
-141 -42 67 0
-141 48 86 0
-141 49 99 0
-142 -1 -57 0
-142 2 -75 0
-142 4 -81 0
-142 6 -93 0
-142 -15 -56 0
-142 -14 61 0
-142 -18 -74 0
-142 20 -92 0
-142 -27 -59 0
-142 -26 63 0
-142 -29 -78 0
-142 -30 82 0
-142 -33 -60 0
-142 -32 65 0
-142 38 84 0
-142 39 98 0
-142 41 67 0
-142 43 80 0
-142 45 86 0
-142 47 99 0
-143 -1 -53 0
-143 2 -75 0
-143 4 -87 0
-143 6 -91 0
-143 -17 -52 0
-143 -16 61 0
-143 -19 -74 0
-143 -20 -86 0
-143 21 63 0
-143 23 -78 0
-143 25 -89 0
-143 27 92 0
-143 -33 58 0
-143 -32 65 0
-143 38 -90 0
-143 39 94 0
-143 -45 59 0
-143 -44 67 0
-143 -48 80 0
-143 50 96 0
-144 -1 -53 0
-144 2 -77 0
-144 4 -85 0
-144 6 -91 0
-144 -17 -52 0
-144 -16 61 0
-144 -19 -76 0
-144 -20 -84 0
-144 21 63 0
-144 23 -79 0
-144 25 -88 0
-144 27 92 0
-144 -35 58 0
-144 -34 65 0
-144 -38 -80 0
-144 40 94 0
-144 -43 59 0
-144 -42 67 0
-144 48 90 0
-144 49 96 0
-145 -1 -55 0
-145 2 -73 0
-145 4 -87 0
-145 6 -91 0
-145 -17 -54 0
-145 -16 61 0
-145 -19 -72 0
-145 -20 -86 0
-145 -23 -58 0
-145 -22 63 0
-145 28 -89 0
-145 29 92 0
-145 31 65 0
-145 33 78 0
-145 35 -90 0
-145 37 94 0
-145 -45 60 0
-145 -44 67 0
-145 -48 79 0
-145 50 96 0
-146 -1 -57 0
-146 2 -73 0
-146 4 -85 0
-146 6 -91 0
-146 -17 -56 0
-146 -16 61 0
-146 -19 -72 0
-146 -20 -84 0
-146 -23 -59 0
-146 -22 63 0
-146 28 -88 0
-146 29 92 0
-146 -35 -60 0
-146 -34 65 0
-146 -38 78 0
-146 40 94 0
-146 41 67 0
-146 43 79 0
-146 45 90 0
-146 47 96 0
-147 -1 -55 0
-147 2 -77 0
-147 4 -83 0
-147 6 -91 0
-147 -17 -54 0
-147 -16 61 0
-147 -19 -76 0
-147 -20 -82 0
-147 -25 -58 0
-147 -24 63 0
-147 -28 -79 0
-147 30 92 0
-147 31 65 0
-147 33 -80 0
-147 35 88 0
-147 37 94 0
-147 -43 60 0
-147 -42 67 0
-147 48 89 0
-147 49 96 0
-148 -1 -57 0
-148 2 -75 0
-148 4 -83 0
-148 6 -91 0
-148 -17 -56 0
-148 -16 61 0
-148 -19 -74 0
-148 -20 -82 0
-148 -25 -59 0
-148 -24 63 0
-148 -28 -78 0
-148 30 92 0
-148 -33 -60 0
-148 -32 65 0
-148 38 88 0
-148 39 94 0
-148 41 67 0
-148 43 80 0
-148 45 89 0
-148 47 96 0
-149 -3 -51 0
-149 -2 -63 0
-149 8 -85 0
-149 9 -97 0
-149 11 -62 0
-149 13 71 0
-149 15 -84 0
-149 17 -96 0
-149 -21 52 0
-149 22 73 0
-149 24 -88 0
-149 26 -99 0
-149 -35 54 0
-149 -34 68 0
-149 -38 75 0
-149 40 -100 0
-149 -47 56 0
-149 -46 69 0
-149 -49 77 0
-149 -50 90 0
-150 -3 -51 0
-150 -2 -63 0
-150 8 -87 0
-150 9 -95 0
-150 11 -62 0
-150 13 71 0
-150 15 -86 0
-150 17 -94 0
-150 -21 52 0
-150 22 73 0
-150 24 -89 0
-150 26 -98 0
-150 -37 54 0
-150 -36 68 0
-150 -39 75 0
-150 -40 -90 0
-150 -45 56 0
-150 -44 69 0
-150 -48 77 0
-150 50 100 0
-151 -3 -51 0
-151 -2 -65 0
-151 8 -83 0
-151 9 -97 0
-151 11 -64 0
-151 13 71 0
-151 15 -82 0
-151 17 -96 0
-151 -25 52 0
-151 -24 -68 0
-151 -28 73 0
-151 30 -99 0
-151 -31 54 0
-151 32 75 0
-151 34 88 0
-151 36 -100 0
-151 -47 56 0
-151 -46 70 0
-151 -49 77 0
-151 -50 89 0
-152 -3 -51 0
-152 -2 -67 0
-152 8 -83 0
-152 9 -95 0
-152 11 -66 0
-152 13 71 0
-152 15 -82 0
-152 17 -94 0
-152 -25 52 0
-152 -24 -69 0
-152 -28 73 0
-152 30 -98 0
-152 -37 54 0
-152 -36 -70 0
-152 -39 75 0
-152 -40 88 0
-152 -41 56 0
-152 42 77 0
-152 44 89 0
-152 46 100 0
-153 -3 -51 0
-153 -2 -65 0
-153 8 -87 0
-153 9 -93 0
-153 11 -64 0
-153 13 71 0
-153 15 -86 0
-153 17 -92 0
-153 -27 52 0
-153 -26 -68 0
-153 -29 73 0
-153 -30 -89 0
-153 -31 54 0
-153 32 75 0
-153 34 -90 0
-153 36 98 0
-153 -45 56 0
-153 -44 70 0
-153 -48 77 0
-153 50 99 0
-154 -3 -51 0
-154 -2 -67 0
-154 8 -85 0
-154 9 -93 0
-154 11 -66 0
-154 13 71 0
-154 15 -84 0
-154 17 -92 0
-154 -27 52 0
-154 -26 -69 0
-154 -29 73 0
-154 -30 -88 0
-154 -35 54 0
-154 -34 -70 0
-154 -38 75 0
-154 40 98 0
-154 -41 56 0
-154 42 77 0
-154 44 90 0
-154 46 99 0
-155 -3 -53 0
-155 -2 -61 0
-155 8 -85 0
-155 9 -97 0
-155 -11 -52 0
-155 12 71 0
-155 14 -84 0
-155 16 -96 0
-155 21 62 0
-155 23 73 0
-155 25 -88 0
-155 27 -99 0
-155 -35 58 0
-155 -34 64 0
-155 -38 75 0
-155 40 -100 0
-155 -47 59 0
-155 -46 66 0
-155 -49 77 0
-155 -50 90 0
-156 -3 -53 0
-156 -2 -61 0
-156 8 -87 0
-156 9 -95 0
-156 -11 -52 0
-156 12 71 0
-156 14 -86 0
-156 16 -94 0
-156 21 62 0
-156 23 73 0
-156 25 -89 0
-156 27 -98 0
-156 -37 58 0
-156 -36 64 0
-156 -39 75 0
-156 -40 -90 0
-156 -45 59 0
-156 -44 66 0
-156 -48 77 0
-156 50 100 0
-157 -3 -55 0
-157 -2 -61 0
-157 8 -83 0
-157 9 -97 0
-157 -11 -54 0
-157 12 71 0
-157 14 -82 0
-157 16 -96 0
-157 -25 -58 0
-157 -24 62 0
-157 -28 73 0
-157 30 -99 0
-157 31 64 0
-157 33 75 0
-157 35 88 0
-157 37 -100 0
-157 -47 60 0
-157 -46 66 0
-157 -49 77 0
-157 -50 89 0
-158 -3 -57 0
-158 -2 -61 0
-158 8 -83 0
-158 9 -95 0
-158 -11 -56 0
-158 12 71 0
-158 14 -82 0
-158 16 -94 0
-158 -25 -59 0
-158 -24 62 0
-158 -28 73 0
-158 30 -98 0
-158 -37 -60 0
-158 -36 64 0
-158 -39 75 0
-158 -40 88 0
-158 41 66 0
-158 43 77 0
-158 45 89 0
-158 47 100 0
-159 -3 -55 0
-159 -2 -61 0
-159 8 -87 0
-159 9 -93 0
-159 -11 -54 0
-159 12 71 0
-159 14 -86 0
-159 16 -92 0
-159 -27 -58 0
-159 -26 62 0
-159 -29 73 0
-159 -30 -89 0
-159 31 64 0
-159 33 75 0
-159 35 -90 0
-159 37 98 0
-159 -45 60 0
-159 -44 66 0
-159 -48 77 0
-159 50 99 0
-160 -3 -57 0
-160 -2 -61 0
-160 8 -85 0
-160 9 -93 0
-160 -11 -56 0
-160 12 71 0
-160 14 -84 0
-160 16 -92 0
-160 -27 -59 0
-160 -26 62 0
-160 -29 73 0
-160 -30 -88 0
-160 -35 -60 0
-160 -34 64 0
-160 -38 75 0
-160 40 98 0
-160 41 66 0
-160 43 77 0
-160 45 90 0
-160 47 99 0
-161 -3 -53 0
-161 -2 -65 0
-161 8 -81 0
-161 9 -97 0
-161 -15 -52 0
-161 -14 -64 0
-161 -18 71 0
-161 20 -96 0
-161 21 -68 0
-161 23 73 0
-161 25 82 0
-161 27 -99 0
-161 -31 58 0
-161 32 75 0
-161 34 84 0
-161 36 -100 0
-161 -47 59 0
-161 -46 70 0
-161 -49 77 0
-161 -50 86 0
-162 -3 -53 0
-162 -2 -67 0
-162 8 -81 0
-162 9 -95 0
-162 -15 -52 0
-162 -14 -66 0
-162 -18 71 0
-162 20 -94 0
-162 21 -69 0
-162 23 73 0
-162 25 82 0
-162 27 -98 0
-162 -37 58 0
-162 -36 -70 0
-162 -39 75 0
-162 -40 84 0
-162 -41 59 0
-162 42 77 0
-162 44 86 0
-162 46 100 0
-163 -3 -55 0
-163 -2 -63 0
-163 8 -81 0
-163 9 -97 0
-163 -15 -54 0
-163 -14 -62 0
-163 -18 71 0
-163 20 -96 0
-163 -21 -58 0
-163 22 73 0
-163 24 82 0
-163 26 -99 0
-163 31 68 0
-163 33 75 0
-163 35 84 0
-163 37 -100 0
-163 -47 60 0
-163 -46 69 0
-163 -49 77 0
-163 -50 86 0
-164 -3 -57 0
-164 -2 -63 0
-164 8 -81 0
-164 9 -95 0
-164 -15 -56 0
-164 -14 -62 0
-164 -18 71 0
-164 20 -94 0
-164 -21 -59 0
-164 22 73 0
-164 24 82 0
-164 26 -98 0
-164 -37 -60 0
-164 -36 68 0
-164 -39 75 0
-164 -40 84 0
-164 41 69 0
-164 43 77 0
-164 45 86 0
-164 47 100 0
-165 -3 -55 0
-165 -2 -67 0
-165 8 -81 0
-165 9 -93 0
-165 -15 -54 0
-165 -14 -66 0
-165 -18 71 0
-165 20 -92 0
-165 -27 -58 0
-165 -26 -69 0
-165 -29 73 0
-165 -30 82 0
-165 31 -70 0
-165 33 75 0
-165 35 84 0
-165 37 98 0
-165 -41 60 0
-165 42 77 0
-165 44 86 0
-165 46 99 0
-166 -3 -57 0
-166 -2 -65 0
-166 8 -81 0
-166 9 -93 0
-166 -15 -56 0
-166 -14 -64 0
-166 -18 71 0
-166 20 -92 0
-166 -27 -59 0
-166 -26 -68 0
-166 -29 73 0
-166 -30 82 0
-166 -31 -60 0
-166 32 75 0
-166 34 84 0
-166 36 98 0
-166 41 70 0
-166 43 77 0
-166 45 86 0
-166 47 99 0
-167 -3 -53 0
-167 -2 -65 0
-167 8 -87 0
-167 9 -91 0
-167 -17 -52 0
-167 -16 -64 0
-167 -19 71 0
-167 -20 -86 0
-167 21 -68 0
-167 23 73 0
-167 25 -89 0
-167 27 92 0
-167 -31 58 0
-167 32 75 0
-167 34 -90 0
-167 36 94 0
-167 -45 59 0
-167 -44 70 0
-167 -48 77 0
-167 50 96 0
-168 -3 -53 0
-168 -2 -67 0
-168 8 -85 0
-168 9 -91 0
-168 -17 -52 0
-168 -16 -66 0
-168 -19 71 0
-168 -20 -84 0
-168 21 -69 0
-168 23 73 0
-168 25 -88 0
-168 27 92 0
-168 -35 58 0
-168 -34 -70 0
-168 -38 75 0
-168 40 94 0
-168 -41 59 0
-168 42 77 0
-168 44 90 0
-168 46 96 0
-169 -3 -55 0
-169 -2 -63 0
-169 8 -87 0
-169 9 -91 0
-169 -17 -54 0
-169 -16 -62 0
-169 -19 71 0
-169 -20 -86 0
-169 -21 -58 0
-169 22 73 0
-169 24 -89 0
-169 26 92 0
-169 31 68 0
-169 33 75 0
-169 35 -90 0
-169 37 94 0
-169 -45 60 0
-169 -44 69 0
-169 -48 77 0
-169 50 96 0
-170 -3 -57 0
-170 -2 -63 0
-170 8 -85 0
-170 9 -91 0
-170 -17 -56 0
-170 -16 -62 0
-170 -19 71 0
-170 -20 -84 0
-170 -21 -59 0
-170 22 73 0
-170 24 -88 0
-170 26 92 0
-170 -35 -60 0
-170 -34 68 0
-170 -38 75 0
-170 40 94 0
-170 41 69 0
-170 43 77 0
-170 45 90 0
-170 47 96 0
-171 -3 -55 0
-171 -2 -67 0
-171 8 -83 0
-171 9 -91 0
-171 -17 -54 0
-171 -16 -66 0
-171 -19 71 0
-171 -20 -82 0
-171 -25 -58 0
-171 -24 -69 0
-171 -28 73 0
-171 30 92 0
-171 31 -70 0
-171 33 75 0
-171 35 88 0
-171 37 94 0
-171 -41 60 0
-171 42 77 0
-171 44 89 0
-171 46 96 0
-172 -3 -57 0
-172 -2 -65 0
-172 8 -83 0
-172 9 -91 0
-172 -17 -56 0
-172 -16 -64 0
-172 -19 71 0
-172 -20 -82 0
-172 -25 -59 0
-172 -24 -68 0
-172 -28 73 0
-172 30 92 0
-172 -31 -60 0
-172 32 75 0
-172 34 88 0
-172 36 94 0
-172 41 70 0
-172 43 77 0
-172 45 89 0
-172 47 96 0
-173 -5 -51 0
-173 -4 -63 0
-173 -8 -75 0
-173 10 -97 0
-173 11 -62 0
-173 13 -74 0
-173 15 81 0
-173 17 -96 0
-173 -21 52 0
-173 22 -78 0
-173 24 83 0
-173 26 -99 0
-173 -33 54 0
-173 -32 68 0
-173 38 85 0
-173 39 -100 0
-173 -47 56 0
-173 -46 69 0
-173 -49 80 0
-173 -50 87 0
-174 -5 -51 0
-174 -4 -63 0
-174 -8 -77 0
-174 10 -95 0
-174 11 -62 0
-174 13 -76 0
-174 15 81 0
-174 17 -94 0
-174 -21 52 0
-174 22 -79 0
-174 24 83 0
-174 26 -98 0
-174 -37 54 0
-174 -36 68 0
-174 -39 -80 0
-174 -40 85 0
-174 -43 56 0
-174 -42 69 0
-174 48 87 0
-174 49 100 0
-175 -5 -51 0
-175 -4 -65 0
-175 -8 -73 0
-175 10 -97 0
-175 11 -64 0
-175 13 -72 0
-175 15 81 0
-175 17 -96 0
-175 -23 52 0
-175 -22 -68 0
-175 28 83 0
-175 29 -99 0
-175 -31 54 0
-175 32 78 0
-175 34 85 0
-175 36 -100 0
-175 -47 56 0
-175 -46 70 0
-175 -49 79 0
-175 -50 87 0
-176 -5 -51 0
-176 -4 -67 0
-176 -8 -73 0
-176 10 -95 0
-176 11 -66 0
-176 13 -72 0
-176 15 81 0
-176 17 -94 0
-176 -23 52 0
-176 -22 -69 0
-176 28 83 0
-176 29 -98 0
-176 -37 54 0
-176 -36 -70 0
-176 -39 78 0
-176 -40 85 0
-176 -41 56 0
-176 42 79 0
-176 44 87 0
-176 46 100 0
-177 -5 -51 0
-177 -4 -65 0
-177 -8 -77 0
-177 10 -93 0
-177 11 -64 0
-177 13 -76 0
-177 15 81 0
-177 17 -92 0
-177 -27 52 0
-177 -26 -68 0
-177 -29 -79 0
-177 -30 83 0
-177 -31 54 0
-177 32 -80 0
-177 34 85 0
-177 36 98 0
-177 -43 56 0
-177 -42 70 0
-177 48 87 0
-177 49 99 0
-178 -5 -51 0
-178 -4 -67 0
-178 -8 -75 0
-178 10 -93 0
-178 11 -66 0
-178 13 -74 0
-178 15 81 0
-178 17 -92 0
-178 -27 52 0
-178 -26 -69 0
-178 -29 -78 0
-178 -30 83 0
-178 -33 54 0
-178 -32 -70 0
-178 38 85 0
-178 39 98 0
-178 -41 56 0
-178 42 80 0
-178 44 87 0
-178 46 99 0
-179 -5 -53 0
-179 -4 -61 0
-179 -8 -75 0
-179 10 -97 0
-179 -11 -52 0
-179 12 -74 0
-179 14 81 0
-179 16 -96 0
-179 21 62 0
-179 23 -78 0
-179 25 83 0
-179 27 -99 0
-179 -33 58 0
-179 -32 64 0
-179 38 85 0
-179 39 -100 0
-179 -47 59 0
-179 -46 66 0
-179 -49 80 0
-179 -50 87 0
-180 -5 -53 0
-180 -4 -61 0
-180 -8 -77 0
-180 10 -95 0
-180 -11 -52 0
-180 12 -76 0
-180 14 81 0
-180 16 -94 0
-180 21 62 0
-180 23 -79 0
-180 25 83 0
-180 27 -98 0
-180 -37 58 0
-180 -36 64 0
-180 -39 -80 0
-180 -40 85 0
-180 -43 59 0
-180 -42 66 0
-180 48 87 0
-180 49 100 0
-181 -5 -55 0
-181 -4 -61 0
-181 -8 -73 0
-181 10 -97 0
-181 -11 -54 0
-181 12 -72 0
-181 14 81 0
-181 16 -96 0
-181 -23 -58 0
-181 -22 62 0
-181 28 83 0
-181 29 -99 0
-181 31 64 0
-181 33 78 0
-181 35 85 0
-181 37 -100 0
-181 -47 60 0
-181 -46 66 0
-181 -49 79 0
-181 -50 87 0
-182 -5 -57 0
-182 -4 -61 0
-182 -8 -73 0
-182 10 -95 0
-182 -11 -56 0
-182 12 -72 0
-182 14 81 0
-182 16 -94 0
-182 -23 -59 0
-182 -22 62 0
-182 28 83 0
-182 29 -98 0
-182 -37 -60 0
-182 -36 64 0
-182 -39 78 0
-182 -40 85 0
-182 41 66 0
-182 43 79 0
-182 45 87 0
-182 47 100 0
-183 -5 -55 0
-183 -4 -61 0
-183 -8 -77 0
-183 10 -93 0
-183 -11 -54 0
-183 12 -76 0
-183 14 81 0
-183 16 -92 0
-183 -27 -58 0
-183 -26 62 0
-183 -29 -79 0
-183 -30 83 0
-183 31 64 0
-183 33 -80 0
-183 35 85 0
-183 37 98 0
-183 -43 60 0
-183 -42 66 0
-183 48 87 0
-183 49 99 0
-184 -5 -57 0
-184 -4 -61 0
-184 -8 -75 0
-184 10 -93 0
-184 -11 -56 0
-184 12 -74 0
-184 14 81 0
-184 16 -92 0
-184 -27 -59 0
-184 -26 62 0
-184 -29 -78 0
-184 -30 83 0
-184 -33 -60 0
-184 -32 64 0
-184 38 85 0
-184 39 98 0
-184 41 66 0
-184 43 80 0
-184 45 87 0
-184 47 99 0
-185 -5 -53 0
-185 -4 -65 0
-185 -8 -71 0
-185 10 -97 0
-185 -13 -52 0
-185 -12 -64 0
-185 18 81 0
-185 19 -96 0
-185 21 -68 0
-185 23 72 0
-185 25 83 0
-185 27 -99 0
-185 -31 58 0
-185 32 74 0
-185 34 85 0
-185 36 -100 0
-185 -47 59 0
-185 -46 70 0
-185 -49 76 0
-185 -50 87 0
-186 -5 -53 0
-186 -4 -67 0
-186 -8 -71 0
-186 10 -95 0
-186 -13 -52 0
-186 -12 -66 0
-186 18 81 0
-186 19 -94 0
-186 21 -69 0
-186 23 72 0
-186 25 83 0
-186 27 -98 0
-186 -37 58 0
-186 -36 -70 0
-186 -39 74 0
-186 -40 85 0
-186 -41 59 0
-186 42 76 0
-186 44 87 0
-186 46 100 0
-187 -5 -55 0
-187 -4 -63 0
-187 -8 -71 0
-187 10 -97 0
-187 -13 -54 0
-187 -12 -62 0
-187 18 81 0
-187 19 -96 0
-187 -21 -58 0
-187 22 72 0
-187 24 83 0
-187 26 -99 0
-187 31 68 0
-187 33 74 0
-187 35 85 0
-187 37 -100 0
-187 -47 60 0
-187 -46 69 0
-187 -49 76 0
-187 -50 87 0
-188 -5 -57 0
-188 -4 -63 0
-188 -8 -71 0
-188 10 -95 0
-188 -13 -56 0
-188 -12 -62 0
-188 18 81 0
-188 19 -94 0
-188 -21 -59 0
-188 22 72 0
-188 24 83 0
-188 26 -98 0
-188 -37 -60 0
-188 -36 68 0
-188 -39 74 0
-188 -40 85 0
-188 41 69 0
-188 43 76 0
-188 45 87 0
-188 47 100 0
-189 -5 -55 0
-189 -4 -67 0
-189 -8 -71 0
-189 10 -93 0
-189 -13 -54 0
-189 -12 -66 0
-189 18 81 0
-189 19 -92 0
-189 -27 -58 0
-189 -26 -69 0
-189 -29 72 0
-189 -30 83 0
-189 31 -70 0
-189 33 74 0
-189 35 85 0
-189 37 98 0
-189 -41 60 0
-189 42 76 0
-189 44 87 0
-189 46 99 0
-190 -5 -57 0
-190 -4 -65 0
-190 -8 -71 0
-190 10 -93 0
-190 -13 -56 0
-190 -12 -64 0
-190 18 81 0
-190 19 -92 0
-190 -27 -59 0
-190 -26 -68 0
-190 -29 72 0
-190 -30 83 0
-190 -31 -60 0
-190 32 74 0
-190 34 85 0
-190 36 98 0
-190 41 70 0
-190 43 76 0
-190 45 87 0
-190 47 99 0
-191 -5 -53 0
-191 -4 -65 0
-191 -8 -77 0
-191 10 -91 0
-191 -17 -52 0
-191 -16 -64 0
-191 -19 -76 0
-191 -20 81 0
-191 21 -68 0
-191 23 -79 0
-191 25 83 0
-191 27 92 0
-191 -31 58 0
-191 32 -80 0
-191 34 85 0
-191 36 94 0
-191 -43 59 0
-191 -42 70 0
-191 48 87 0
-191 49 96 0
-192 -5 -53 0
-192 -4 -67 0
-192 -8 -75 0
-192 10 -91 0
-192 -17 -52 0
-192 -16 -66 0
-192 -19 -74 0
-192 -20 81 0
-192 21 -69 0
-192 23 -78 0
-192 25 83 0
-192 27 92 0
-192 -33 58 0
-192 -32 -70 0
-192 38 85 0
-192 39 94 0
-192 -41 59 0
-192 42 80 0
-192 44 87 0
-192 46 96 0
-193 -5 -55 0
-193 -4 -63 0
-193 -8 -77 0
-193 10 -91 0
-193 -17 -54 0
-193 -16 -62 0
-193 -19 -76 0
-193 -20 81 0
-193 -21 -58 0
-193 22 -79 0
-193 24 83 0
-193 26 92 0
-193 31 68 0
-193 33 -80 0
-193 35 85 0
-193 37 94 0
-193 -43 60 0
-193 -42 69 0
-193 48 87 0
-193 49 96 0
-194 -5 -57 0
-194 -4 -63 0
-194 -8 -75 0
-194 10 -91 0
-194 -17 -56 0
-194 -16 -62 0
-194 -19 -74 0
-194 -20 81 0
-194 -21 -59 0
-194 22 -78 0
-194 24 83 0
-194 26 92 0
-194 -33 -60 0
-194 -32 68 0
-194 38 85 0
-194 39 94 0
-194 41 69 0
-194 43 80 0
-194 45 87 0
-194 47 96 0
-195 -5 -55 0
-195 -4 -67 0
-195 -8 -73 0
-195 10 -91 0
-195 -17 -54 0
-195 -16 -66 0
-195 -19 -72 0
-195 -20 81 0
-195 -23 -58 0
-195 -22 -69 0
-195 28 83 0
-195 29 92 0
-195 31 -70 0
-195 33 78 0
-195 35 85 0
-195 37 94 0
-195 -41 60 0
-195 42 79 0
-195 44 87 0
-195 46 96 0
-196 -5 -57 0
-196 -4 -65 0
-196 -8 -73 0
-196 10 -91 0
-196 -17 -56 0
-196 -16 -64 0
-196 -19 -72 0
-196 -20 81 0
-196 -23 -59 0
-196 -22 -68 0
-196 28 83 0
-196 29 92 0
-196 -31 -60 0
-196 32 78 0
-196 34 85 0
-196 36 94 0
-196 41 70 0
-196 43 79 0
-196 45 87 0
-196 47 96 0
-197 -7 -51 0
-197 -6 -63 0
-197 -9 -75 0
-197 -10 -87 0
-197 11 -62 0
-197 13 -74 0
-197 15 -86 0
-197 17 91 0
-197 -21 52 0
-197 22 -78 0
-197 24 -89 0
-197 26 93 0
-197 -33 54 0
-197 -32 68 0
-197 38 -90 0
-197 39 95 0
-197 -45 56 0
-197 -44 69 0
-197 -48 80 0
-197 50 97 0
-198 -7 -51 0
-198 -6 -63 0
-198 -9 -77 0
-198 -10 -85 0
-198 11 -62 0
-198 13 -76 0
-198 15 -84 0
-198 17 91 0
-198 -21 52 0
-198 22 -79 0
-198 24 -88 0
-198 26 93 0
-198 -35 54 0
-198 -34 68 0
-198 -38 -80 0
-198 40 95 0
-198 -43 56 0
-198 -42 69 0
-198 48 90 0
-198 49 97 0
-199 -7 -51 0
-199 -6 -65 0
-199 -9 -73 0
-199 -10 -87 0
-199 11 -64 0
-199 13 -72 0
-199 15 -86 0
-199 17 91 0
-199 -23 52 0
-199 -22 -68 0
-199 28 -89 0
-199 29 93 0
-199 -31 54 0
-199 32 78 0
-199 34 -90 0
-199 36 95 0
-199 -45 56 0
-199 -44 70 0
-199 -48 79 0
-199 50 97 0
-200 -7 -51 0
-200 -6 -67 0
-200 -9 -73 0
-200 -10 -85 0
-200 11 -66 0
-200 13 -72 0
-200 15 -84 0
-200 17 91 0
-200 -23 52 0
-200 -22 -69 0
-200 28 -88 0
-200 29 93 0
-200 -35 54 0
-200 -34 -70 0
-200 -38 78 0
-200 40 95 0
-200 -41 56 0
-200 42 79 0
-200 44 90 0
-200 46 97 0
-201 -7 -51 0
-201 -6 -65 0
-201 -9 -77 0
-201 -10 -83 0
-201 11 -64 0
-201 13 -76 0
-201 15 -82 0
-201 17 91 0
-201 -25 52 0
-201 -24 -68 0
-201 -28 -79 0
-201 30 93 0
-201 -31 54 0
-201 32 -80 0
-201 34 88 0
-201 36 95 0
-201 -43 56 0
-201 -42 70 0
-201 48 89 0
-201 49 97 0
-202 -7 -51 0
-202 -6 -67 0
-202 -9 -75 0
-202 -10 -83 0
-202 11 -66 0
-202 13 -74 0
-202 15 -82 0
-202 17 91 0
-202 -25 52 0
-202 -24 -69 0
-202 -28 -78 0
-202 30 93 0
-202 -33 54 0
-202 -32 -70 0
-202 38 88 0
-202 39 95 0
-202 -41 56 0
-202 42 80 0
-202 44 89 0
-202 46 97 0
-203 -7 -53 0
-203 -6 -61 0
-203 -9 -75 0
-203 -10 -87 0
-203 -11 -52 0
-203 12 -74 0
-203 14 -86 0
-203 16 91 0
-203 21 62 0
-203 23 -78 0
-203 25 -89 0
-203 27 93 0
-203 -33 58 0
-203 -32 64 0
-203 38 -90 0
-203 39 95 0
-203 -45 59 0
-203 -44 66 0
-203 -48 80 0
-203 50 97 0
-204 -7 -53 0
-204 -6 -61 0
-204 -9 -77 0
-204 -10 -85 0
-204 -11 -52 0
-204 12 -76 0
-204 14 -84 0
-204 16 91 0
-204 21 62 0
-204 23 -79 0
-204 25 -88 0
-204 27 93 0
-204 -35 58 0
-204 -34 64 0
-204 -38 -80 0
-204 40 95 0
-204 -43 59 0
-204 -42 66 0
-204 48 90 0
-204 49 97 0
-205 -7 -55 0
-205 -6 -61 0
-205 -9 -73 0
-205 -10 -87 0
-205 -11 -54 0
-205 12 -72 0
-205 14 -86 0
-205 16 91 0
-205 -23 -58 0
-205 -22 62 0
-205 28 -89 0
-205 29 93 0
-205 31 64 0
-205 33 78 0
-205 35 -90 0
-205 37 95 0
-205 -45 60 0
-205 -44 66 0
-205 -48 79 0
-205 50 97 0
-206 -7 -57 0
-206 -6 -61 0
-206 -9 -73 0
-206 -10 -85 0
-206 -11 -56 0
-206 12 -72 0
-206 14 -84 0
-206 16 91 0
-206 -23 -59 0
-206 -22 62 0
-206 28 -88 0
-206 29 93 0
-206 -35 -60 0
-206 -34 64 0
-206 -38 78 0
-206 40 95 0
-206 41 66 0
-206 43 79 0
-206 45 90 0
-206 47 97 0
-207 -7 -55 0
-207 -6 -61 0
-207 -9 -77 0
-207 -10 -83 0
-207 -11 -54 0
-207 12 -76 0
-207 14 -82 0
-207 16 91 0
-207 -25 -58 0
-207 -24 62 0
-207 -28 -79 0
-207 30 93 0
-207 31 64 0
-207 33 -80 0
-207 35 88 0
-207 37 95 0
-207 -43 60 0
-207 -42 66 0
-207 48 89 0
-207 49 97 0
-208 -7 -57 0
-208 -6 -61 0
-208 -9 -75 0
-208 -10 -83 0
-208 -11 -56 0
-208 12 -74 0
-208 14 -82 0
-208 16 91 0
-208 -25 -59 0
-208 -24 62 0
-208 -28 -78 0
-208 30 93 0
-208 -33 -60 0
-208 -32 64 0
-208 38 88 0
-208 39 95 0
-208 41 66 0
-208 43 80 0
-208 45 89 0
-208 47 97 0
-209 -7 -53 0
-209 -6 -65 0
-209 -9 -71 0
-209 -10 -87 0
-209 -13 -52 0
-209 -12 -64 0
-209 18 -86 0
-209 19 91 0
-209 21 -68 0
-209 23 72 0
-209 25 -89 0
-209 27 93 0
-209 -31 58 0
-209 32 74 0
-209 34 -90 0
-209 36 95 0
-209 -45 59 0
-209 -44 70 0
-209 -48 76 0
-209 50 97 0
-210 -7 -53 0
-210 -6 -67 0
-210 -9 -71 0
-210 -10 -85 0
-210 -13 -52 0
-210 -12 -66 0
-210 18 -84 0
-210 19 91 0
-210 21 -69 0
-210 23 72 0
-210 25 -88 0
-210 27 93 0
-210 -35 58 0
-210 -34 -70 0
-210 -38 74 0
-210 40 95 0
-210 -41 59 0
-210 42 76 0
-210 44 90 0
-210 46 97 0
-211 -7 -55 0
-211 -6 -63 0
-211 -9 -71 0
-211 -10 -87 0
-211 -13 -54 0
-211 -12 -62 0
-211 18 -86 0
-211 19 91 0
-211 -21 -58 0
-211 22 72 0
-211 24 -89 0
-211 26 93 0
-211 31 68 0
-211 33 74 0
-211 35 -90 0
-211 37 95 0
-211 -45 60 0
-211 -44 69 0
-211 -48 76 0
-211 50 97 0
-212 -7 -57 0
-212 -6 -63 0
-212 -9 -71 0
-212 -10 -85 0
-212 -13 -56 0
-212 -12 -62 0
-212 18 -84 0
-212 19 91 0
-212 -21 -59 0
-212 22 72 0
-212 24 -88 0
-212 26 93 0
-212 -35 -60 0
-212 -34 68 0
-212 -38 74 0
-212 40 95 0
-212 41 69 0
-212 43 76 0
-212 45 90 0
-212 47 97 0
-213 -7 -55 0
-213 -6 -67 0
-213 -9 -71 0
-213 -10 -83 0
-213 -13 -54 0
-213 -12 -66 0
-213 18 -82 0
-213 19 91 0
-213 -25 -58 0
-213 -24 -69 0
-213 -28 72 0
-213 30 93 0
-213 31 -70 0
-213 33 74 0
-213 35 88 0
-213 37 95 0
-213 -41 60 0
-213 42 76 0
-213 44 89 0
-213 46 97 0
-214 -7 -57 0
-214 -6 -65 0
-214 -9 -71 0
-214 -10 -83 0
-214 -13 -56 0
-214 -12 -64 0
-214 18 -82 0
-214 19 91 0
-214 -25 -59 0
-214 -24 -68 0
-214 -28 72 0
-214 30 93 0
-214 -31 -60 0
-214 32 74 0
-214 34 88 0
-214 36 95 0
-214 41 70 0
-214 43 76 0
-214 45 89 0
-214 47 97 0
-215 -7 -53 0
-215 -6 -65 0
-215 -9 -77 0
-215 -10 -81 0
-215 -15 -52 0
-215 -14 -64 0
-215 -18 -76 0
-215 20 91 0
-215 21 -68 0
-215 23 -79 0
-215 25 82 0
-215 27 93 0
-215 -31 58 0
-215 32 -80 0
-215 34 84 0
-215 36 95 0
-215 -43 59 0
-215 -42 70 0
-215 48 86 0
-215 49 97 0
-216 -7 -53 0
-216 -6 -67 0
-216 -9 -75 0
-216 -10 -81 0
-216 -15 -52 0
-216 -14 -66 0
-216 -18 -74 0
-216 20 91 0
-216 21 -69 0
-216 23 -78 0
-216 25 82 0
-216 27 93 0
-216 -33 58 0
-216 -32 -70 0
-216 38 84 0
-216 39 95 0
-216 -41 59 0
-216 42 80 0
-216 44 86 0
-216 46 97 0
-217 -7 -55 0
-217 -6 -63 0
-217 -9 -77 0
-217 -10 -81 0
-217 -15 -54 0
-217 -14 -62 0
-217 -18 -76 0
-217 20 91 0
-217 -21 -58 0
-217 22 -79 0
-217 24 82 0
-217 26 93 0
-217 31 68 0
-217 33 -80 0
-217 35 84 0
-217 37 95 0
-217 -43 60 0
-217 -42 69 0
-217 48 86 0
-217 49 97 0
-218 -7 -57 0
-218 -6 -63 0
-218 -9 -75 0
-218 -10 -81 0
-218 -15 -56 0
-218 -14 -62 0
-218 -18 -74 0
-218 20 91 0
-218 -21 -59 0
-218 22 -78 0
-218 24 82 0
-218 26 93 0
-218 -33 -60 0
-218 -32 68 0
-218 38 84 0
-218 39 95 0
-218 41 69 0
-218 43 80 0
-218 45 86 0
-218 47 97 0
-219 -7 -55 0
-219 -6 -67 0
-219 -9 -73 0
-219 -10 -81 0
-219 -15 -54 0
-219 -14 -66 0
-219 -18 -72 0
-219 20 91 0
-219 -23 -58 0
-219 -22 -69 0
-219 28 82 0
-219 29 93 0
-219 31 -70 0
-219 33 78 0
-219 35 84 0
-219 37 95 0
-219 -41 60 0
-219 42 79 0
-219 44 86 0
-219 46 97 0
-220 -7 -57 0
-220 -6 -65 0
-220 -9 -73 0
-220 -10 -81 0
-220 -15 -56 0
-220 -14 -64 0
-220 -18 -72 0
-220 20 91 0
-220 -23 -59 0
-220 -22 -68 0
-220 28 82 0
-220 29 93 0
-220 -31 -60 0
-220 32 78 0
-220 34 84 0
-220 36 95 0
-220 41 70 0
-220 43 79 0
-220 45 86 0
-220 47 97 0
1 0
3 0
5 0
7 0
2 0
4 0
6 0
8 0
9 0
10 0
101 221 0
-221 222 0
102 -221 223 0
-223 224 0
103 -223 225 0
-225 226 0
104 -225 227 0
-227 228 0
105 -227 229 0
-229 230 0
106 -229 231 0
-231 232 0
107 -231 233 0
-233 234 0
108 -233 235 0
-235 236 0
109 -235 237 0
-237 238 0
110 -237 239 0
-239 240 0
111 -239 241 0
-241 242 0
112 -241 243 0
-243 244 0
113 -243 245 0
-245 246 0
114 -245 247 0
-247 248 0
115 -247 249 0
-249 250 0
116 -249 251 0
-251 252 0
117 -251 253 0
-253 254 0
118 -253 255 0
-255 256 0
119 -255 257 0
-257 258 0
120 -257 259 0
-259 260 0
121 -259 261 0
-261 262 0
122 -261 263 0
-263 264 0
123 -263 265 0
-265 266 0
124 -265 267 0
-267 268 0
125 -267 269 0
-269 270 0
126 -269 271 0
-271 272 0
127 -271 273 0
-273 274 0
128 -273 275 0
-275 276 0
129 -275 277 0
-277 278 0
130 -277 279 0
-279 280 0
131 -279 281 0
-281 282 0
132 -281 283 0
-283 284 0
133 -283 285 0
-285 286 0
134 -285 287 0
-287 288 0
135 -287 289 0
-289 290 0
136 -289 291 0
-291 292 0
137 -291 293 0
-293 294 0
138 -293 295 0
-295 296 0
139 -295 297 0
-297 298 0
140 -297 299 0
-299 300 0
141 -299 301 0
-301 302 0
142 -301 303 0
-303 304 0
143 -303 305 0
-305 306 0
144 -305 307 0
-307 308 0
145 -307 309 0
-309 310 0
146 -309 311 0
-311 312 0
147 -311 313 0
-313 314 0
148 -313 315 0
-315 316 0
149 -315 317 0
-317 318 0
150 -317 319 0
-319 320 0
151 -319 321 0
-321 322 0
152 -321 323 0
-323 324 0
153 -323 325 0
-325 326 0
154 -325 327 0
-327 328 0
155 -327 329 0
-329 330 0
156 -329 331 0
-331 332 0
157 -331 333 0
-333 334 0
158 -333 335 0
-335 336 0
159 -335 337 0
-337 338 0
160 -337 339 0
-339 340 0
161 -339 341 0
-341 342 0
162 -341 343 0
-343 344 0
163 -343 345 0
-345 346 0
164 -345 347 0
-347 348 0
165 -347 349 0
-349 350 0
166 -349 351 0
-351 352 0
167 -351 353 0
-353 354 0
168 -353 355 0
-355 356 0
169 -355 357 0
-357 358 0
170 -357 359 0
-359 360 0
171 -359 361 0
-361 362 0
172 -361 363 0
-363 364 0
173 -363 365 0
-365 366 0
174 -365 367 0
-367 368 0
175 -367 369 0
-369 370 0
176 -369 371 0
-371 372 0
177 -371 373 0
-373 374 0
178 -373 375 0
-375 376 0
179 -375 377 0
-377 378 0
180 -377 379 0
-379 380 0
181 -379 381 0
-381 382 0
182 -381 383 0
-383 384 0
183 -383 385 0
-385 386 0
184 -385 387 0
-387 388 0
185 -387 389 0
-389 390 0
186 -389 391 0
-391 392 0
187 -391 393 0
-393 394 0
188 -393 395 0
-395 396 0
189 -395 397 0
-397 398 0
190 -397 399 0
-399 400 0
191 -399 401 0
-401 402 0
192 -401 403 0
-403 404 0
193 -403 405 0
-405 406 0
194 -405 407 0
-407 408 0
195 -407 409 0
-409 410 0
196 -409 411 0
-411 412 0
197 -411 413 0
-413 414 0
198 -413 415 0
-415 416 0
199 -415 417 0
-417 418 0
200 -417 419 0
-419 420 0
201 -419 421 0
-421 422 0
202 -421 423 0
-423 424 0
203 -423 425 0
-425 426 0
204 -425 0
102 222 0
-222 427 0
103 -222 224 0
-224 428 0
104 -224 226 0
-226 429 0
105 -226 228 0
-228 430 0
106 -228 230 0
-230 431 0
107 -230 232 0
-232 432 0
108 -232 234 0
-234 433 0
109 -234 236 0
-236 434 0
110 -236 238 0
-238 435 0
111 -238 240 0
-240 436 0
112 -240 242 0
-242 437 0
113 -242 244 0
-244 438 0
114 -244 246 0
-246 439 0
115 -246 248 0
-248 440 0
116 -248 250 0
-250 441 0
117 -250 252 0
-252 442 0
118 -252 254 0
-254 443 0
119 -254 256 0
-256 444 0
120 -256 258 0
-258 445 0
121 -258 260 0
-260 446 0
122 -260 262 0
-262 447 0
123 -262 264 0
-264 448 0
124 -264 266 0
-266 449 0
125 -266 268 0
-268 450 0
126 -268 270 0
-270 451 0
127 -270 272 0
-272 452 0
128 -272 274 0
-274 453 0
129 -274 276 0
-276 454 0
130 -276 278 0
-278 455 0
131 -278 280 0
-280 456 0
132 -280 282 0
-282 457 0
133 -282 284 0
-284 458 0
134 -284 286 0
-286 459 0
135 -286 288 0
-288 460 0
136 -288 290 0
-290 461 0
137 -290 292 0
-292 462 0
138 -292 294 0
-294 463 0
139 -294 296 0
-296 464 0
140 -296 298 0
-298 465 0
141 -298 300 0
-300 466 0
142 -300 302 0
-302 467 0
143 -302 304 0
-304 468 0
144 -304 306 0
-306 469 0
145 -306 308 0
-308 470 0
146 -308 310 0
-310 471 0
147 -310 312 0
-312 472 0
148 -312 314 0
-314 473 0
149 -314 316 0
-316 474 0
150 -316 318 0
-318 475 0
151 -318 320 0
-320 476 0
152 -320 322 0
-322 477 0
153 -322 324 0
-324 478 0
154 -324 326 0
-326 479 0
155 -326 328 0
-328 480 0
156 -328 330 0
-330 481 0
157 -330 332 0
-332 482 0
158 -332 334 0
-334 483 0
159 -334 336 0
-336 484 0
160 -336 338 0
-338 485 0
161 -338 340 0
-340 486 0
162 -340 342 0
-342 487 0
163 -342 344 0
-344 488 0
164 -344 346 0
-346 489 0
165 -346 348 0
-348 490 0
166 -348 350 0
-350 491 0
167 -350 352 0
-352 492 0
168 -352 354 0
-354 493 0
169 -354 356 0
-356 494 0
170 -356 358 0
-358 495 0
171 -358 360 0
-360 496 0
172 -360 362 0
-362 497 0
173 -362 364 0
-364 498 0
174 -364 366 0
-366 499 0
175 -366 368 0
-368 500 0
176 -368 370 0
-370 501 0
177 -370 372 0
-372 502 0
178 -372 374 0
-374 503 0
179 -374 376 0
-376 504 0
180 -376 378 0
-378 505 0
181 -378 380 0
-380 506 0
182 -380 382 0
-382 507 0
183 -382 384 0
-384 508 0
184 -384 386 0
-386 509 0
185 -386 388 0
-388 510 0
186 -388 390 0
-390 511 0
187 -390 392 0
-392 512 0
188 -392 394 0
-394 513 0
189 -394 396 0
-396 514 0
190 -396 398 0
-398 515 0
191 -398 400 0
-400 516 0
192 -400 402 0
-402 517 0
193 -402 404 0
-404 518 0
194 -404 406 0
-406 519 0
195 -406 408 0
-408 520 0
196 -408 410 0
-410 521 0
197 -410 412 0
-412 522 0
198 -412 414 0
-414 523 0
199 -414 416 0
-416 524 0
200 -416 418 0
-418 525 0
201 -418 420 0
-420 526 0
202 -420 422 0
-422 527 0
203 -422 424 0
-424 528 0
204 -424 426 0
-426 529 0
205 -426 0
103 427 0
-427 530 0
104 -427 428 0
-428 531 0
105 -428 429 0
-429 532 0
106 -429 430 0
-430 533 0
107 -430 431 0
-431 534 0
108 -431 432 0
-432 535 0
109 -432 433 0
-433 536 0
110 -433 434 0
-434 537 0
111 -434 435 0
-435 538 0
112 -435 436 0
-436 539 0
113 -436 437 0
-437 540 0
114 -437 438 0
-438 541 0
115 -438 439 0
-439 542 0
116 -439 440 0
-440 543 0
117 -440 441 0
-441 544 0
118 -441 442 0
-442 545 0
119 -442 443 0
-443 546 0
120 -443 444 0
-444 547 0
121 -444 445 0
-445 548 0
122 -445 446 0
-446 549 0
123 -446 447 0
-447 550 0
124 -447 448 0
-448 551 0
125 -448 449 0
-449 552 0
126 -449 450 0
-450 553 0
127 -450 451 0
-451 554 0
128 -451 452 0
-452 555 0
129 -452 453 0
-453 556 0
130 -453 454 0
-454 557 0
131 -454 455 0
-455 558 0
132 -455 456 0
-456 559 0
133 -456 457 0
-457 560 0
134 -457 458 0
-458 561 0
135 -458 459 0
-459 562 0
136 -459 460 0
-460 563 0
137 -460 461 0
-461 564 0
138 -461 462 0
-462 565 0
139 -462 463 0
-463 566 0
140 -463 464 0
-464 567 0
141 -464 465 0
-465 568 0
142 -465 466 0
-466 569 0
143 -466 467 0
-467 570 0
144 -467 468 0
-468 571 0
145 -468 469 0
-469 572 0
146 -469 470 0
-470 573 0
147 -470 471 0
-471 574 0
148 -471 472 0
-472 575 0
149 -472 473 0
-473 576 0
150 -473 474 0
-474 577 0
151 -474 475 0
-475 578 0
152 -475 476 0
-476 579 0
153 -476 477 0
-477 580 0
154 -477 478 0
-478 581 0
155 -478 479 0
-479 582 0
156 -479 480 0
-480 583 0
157 -480 481 0
-481 584 0
158 -481 482 0
-482 585 0
159 -482 483 0
-483 586 0
160 -483 484 0
-484 587 0
161 -484 485 0
-485 588 0
162 -485 486 0
-486 589 0
163 -486 487 0
-487 590 0
164 -487 488 0
-488 591 0
165 -488 489 0
-489 592 0
166 -489 490 0
-490 593 0
167 -490 491 0
-491 594 0
168 -491 492 0
-492 595 0
169 -492 493 0
-493 596 0
170 -493 494 0
-494 597 0
171 -494 495 0
-495 598 0
172 -495 496 0
-496 599 0
173 -496 497 0
-497 600 0
174 -497 498 0
-498 601 0
175 -498 499 0
-499 602 0
176 -499 500 0
-500 603 0
177 -500 501 0
-501 604 0
178 -501 502 0
-502 605 0
179 -502 503 0
-503 606 0
180 -503 504 0
-504 607 0
181 -504 505 0
-505 608 0
182 -505 506 0
-506 609 0
183 -506 507 0
-507 610 0
184 -507 508 0
-508 611 0
185 -508 509 0
-509 612 0
186 -509 510 0
-510 613 0
187 -510 511 0
-511 614 0
188 -511 512 0
-512 615 0
189 -512 513 0
-513 616 0
190 -513 514 0
-514 617 0
191 -514 515 0
-515 618 0
192 -515 516 0
-516 619 0
193 -516 517 0
-517 620 0
194 -517 518 0
-518 621 0
195 -518 519 0
-519 622 0
196 -519 520 0
-520 623 0
197 -520 521 0
-521 624 0
198 -521 522 0
-522 625 0
199 -522 523 0
-523 626 0
200 -523 524 0
-524 627 0
201 -524 525 0
-525 628 0
202 -525 526 0
-526 629 0
203 -526 527 0
-527 630 0
204 -527 528 0
-528 631 0
205 -528 529 0
-529 632 0
206 -529 0
104 530 0
-530 633 0
105 -530 531 0
-531 634 0
106 -531 532 0
-532 635 0
107 -532 533 0
-533 636 0
108 -533 534 0
-534 637 0
109 -534 535 0
-535 638 0
110 -535 536 0
-536 639 0
111 -536 537 0
-537 640 0
112 -537 538 0
-538 641 0
113 -538 539 0
-539 642 0
114 -539 540 0
-540 643 0
115 -540 541 0
-541 644 0
116 -541 542 0
-542 645 0
117 -542 543 0
-543 646 0
118 -543 544 0
-544 647 0
119 -544 545 0
-545 648 0
120 -545 546 0
-546 649 0
121 -546 547 0
-547 650 0
122 -547 548 0
-548 651 0
123 -548 549 0
-549 652 0
124 -549 550 0
-550 653 0
125 -550 551 0
-551 654 0
126 -551 552 0
-552 655 0
127 -552 553 0
-553 656 0
128 -553 554 0
-554 657 0
129 -554 555 0
-555 658 0
130 -555 556 0
-556 659 0
131 -556 557 0
-557 660 0
132 -557 558 0
-558 661 0
133 -558 559 0
-559 662 0
134 -559 560 0
-560 663 0
135 -560 561 0
-561 664 0
136 -561 562 0
-562 665 0
137 -562 563 0
-563 666 0
138 -563 564 0
-564 667 0
139 -564 565 0
-565 668 0
140 -565 566 0
-566 669 0
141 -566 567 0
-567 670 0
142 -567 568 0
-568 671 0
143 -568 569 0
-569 672 0
144 -569 570 0
-570 673 0
145 -570 571 0
-571 674 0
146 -571 572 0
-572 675 0
147 -572 573 0
-573 676 0
148 -573 574 0
-574 677 0
149 -574 575 0
-575 678 0
150 -575 576 0
-576 679 0
151 -576 577 0
-577 680 0
152 -577 578 0
-578 681 0
153 -578 579 0
-579 682 0
154 -579 580 0
-580 683 0
155 -580 581 0
-581 684 0
156 -581 582 0
-582 685 0
157 -582 583 0
-583 686 0
158 -583 584 0
-584 687 0
159 -584 585 0
-585 688 0
160 -585 586 0
-586 689 0
161 -586 587 0
-587 690 0
162 -587 588 0
-588 691 0
163 -588 589 0
-589 692 0
164 -589 590 0
-590 693 0
165 -590 591 0
-591 694 0
166 -591 592 0
-592 695 0
167 -592 593 0
-593 696 0
168 -593 594 0
-594 697 0
169 -594 595 0
-595 698 0
170 -595 596 0
-596 699 0
171 -596 597 0
-597 700 0
172 -597 598 0
-598 701 0
173 -598 599 0
-599 702 0
174 -599 600 0
-600 703 0
175 -600 601 0
-601 704 0
176 -601 602 0
-602 705 0
177 -602 603 0
-603 706 0
178 -603 604 0
-604 707 0
179 -604 605 0
-605 708 0
180 -605 606 0
-606 709 0
181 -606 607 0
-607 710 0
182 -607 608 0
-608 711 0
183 -608 609 0
-609 712 0
184 -609 610 0
-610 713 0
185 -610 611 0
-611 714 0
186 -611 612 0
-612 715 0
187 -612 613 0
-613 716 0
188 -613 614 0
-614 717 0
189 -614 615 0
-615 718 0
190 -615 616 0
-616 719 0
191 -616 617 0
-617 720 0
192 -617 618 0
-618 721 0
193 -618 619 0
-619 722 0
194 -619 620 0
-620 723 0
195 -620 621 0
-621 724 0
196 -621 622 0
-622 725 0
197 -622 623 0
-623 726 0
198 -623 624 0
-624 727 0
199 -624 625 0
-625 728 0
200 -625 626 0
-626 729 0
201 -626 627 0
-627 730 0
202 -627 628 0
-628 731 0
203 -628 629 0
-629 732 0
204 -629 630 0
-630 733 0
205 -630 631 0
-631 734 0
206 -631 632 0
-632 735 0
207 -632 0
105 633 0
-633 736 0
106 -633 634 0
-634 737 0
107 -634 635 0
-635 738 0
108 -635 636 0
-636 739 0
109 -636 637 0
-637 740 0
110 -637 638 0
-638 741 0
111 -638 639 0
-639 742 0
112 -639 640 0
-640 743 0
113 -640 641 0
-641 744 0
114 -641 642 0
-642 745 0
115 -642 643 0
-643 746 0
116 -643 644 0
-644 747 0
117 -644 645 0
-645 748 0
118 -645 646 0
-646 749 0
119 -646 647 0
-647 750 0
120 -647 648 0
-648 751 0
121 -648 649 0
-649 752 0
122 -649 650 0
-650 753 0
123 -650 651 0
-651 754 0
124 -651 652 0
-652 755 0
125 -652 653 0
-653 756 0
126 -653 654 0
-654 757 0
127 -654 655 0
-655 758 0
128 -655 656 0
-656 759 0
129 -656 657 0
-657 760 0
130 -657 658 0
-658 761 0
131 -658 659 0
-659 762 0
132 -659 660 0
-660 763 0
133 -660 661 0
-661 764 0
134 -661 662 0
-662 765 0
135 -662 663 0
-663 766 0
136 -663 664 0
-664 767 0
137 -664 665 0
-665 768 0
138 -665 666 0
-666 769 0
139 -666 667 0
-667 770 0
140 -667 668 0
-668 771 0
141 -668 669 0
-669 772 0
142 -669 670 0
-670 773 0
143 -670 671 0
-671 774 0
144 -671 672 0
-672 775 0
145 -672 673 0
-673 776 0
146 -673 674 0
-674 777 0
147 -674 675 0
-675 778 0
148 -675 676 0
-676 779 0
149 -676 677 0
-677 780 0
150 -677 678 0
-678 781 0
151 -678 679 0
-679 782 0
152 -679 680 0
-680 783 0
153 -680 681 0
-681 784 0
154 -681 682 0
-682 785 0
155 -682 683 0
-683 786 0
156 -683 684 0
-684 787 0
157 -684 685 0
-685 788 0
158 -685 686 0
-686 789 0
159 -686 687 0
-687 790 0
160 -687 688 0
-688 791 0
161 -688 689 0
-689 792 0
162 -689 690 0
-690 793 0
163 -690 691 0
-691 794 0
164 -691 692 0
-692 795 0
165 -692 693 0
-693 796 0
166 -693 694 0
-694 797 0
167 -694 695 0
-695 798 0
168 -695 696 0
-696 799 0
169 -696 697 0
-697 800 0
170 -697 698 0
-698 801 0
171 -698 699 0
-699 802 0
172 -699 700 0
-700 803 0
173 -700 701 0
-701 804 0
174 -701 702 0
-702 805 0
175 -702 703 0
-703 806 0
176 -703 704 0
-704 807 0
177 -704 705 0
-705 808 0
178 -705 706 0
-706 809 0
179 -706 707 0
-707 810 0
180 -707 708 0
-708 811 0
181 -708 709 0
-709 812 0
182 -709 710 0
-710 813 0
183 -710 711 0
-711 814 0
184 -711 712 0
-712 815 0
185 -712 713 0
-713 816 0
186 -713 714 0
-714 817 0
187 -714 715 0
-715 818 0
188 -715 716 0
-716 819 0
189 -716 717 0
-717 820 0
190 -717 718 0
-718 821 0
191 -718 719 0
-719 822 0
192 -719 720 0
-720 823 0
193 -720 721 0
-721 824 0
194 -721 722 0
-722 825 0
195 -722 723 0
-723 826 0
196 -723 724 0
-724 827 0
197 -724 725 0
-725 828 0
198 -725 726 0
-726 829 0
199 -726 727 0
-727 830 0
200 -727 728 0
-728 831 0
201 -728 729 0
-729 832 0
202 -729 730 0
-730 833 0
203 -730 731 0
-731 834 0
204 -731 732 0
-732 835 0
205 -732 733 0
-733 836 0
206 -733 734 0
-734 837 0
207 -734 735 0
-735 838 0
208 -735 0
106 736 0
-736 839 0
107 -736 737 0
-737 840 0
108 -737 738 0
-738 841 0
109 -738 739 0
-739 842 0
110 -739 740 0
-740 843 0
111 -740 741 0
-741 844 0
112 -741 742 0
-742 845 0
113 -742 743 0
-743 846 0
114 -743 744 0
-744 847 0
115 -744 745 0
-745 848 0
116 -745 746 0
-746 849 0
117 -746 747 0
-747 850 0
118 -747 748 0
-748 851 0
119 -748 749 0
-749 852 0
120 -749 750 0
-750 853 0
121 -750 751 0
-751 854 0
122 -751 752 0
-752 855 0
123 -752 753 0
-753 856 0
124 -753 754 0
-754 857 0
125 -754 755 0
-755 858 0
126 -755 756 0
-756 859 0
127 -756 757 0
-757 860 0
128 -757 758 0
-758 861 0
129 -758 759 0
-759 862 0
130 -759 760 0
-760 863 0
131 -760 761 0
-761 864 0
132 -761 762 0
-762 865 0
133 -762 763 0
-763 866 0
134 -763 764 0
-764 867 0
135 -764 765 0
-765 868 0
136 -765 766 0
-766 869 0
137 -766 767 0
-767 870 0
138 -767 768 0
-768 871 0
139 -768 769 0
-769 872 0
140 -769 770 0
-770 873 0
141 -770 771 0
-771 874 0
142 -771 772 0
-772 875 0
143 -772 773 0
-773 876 0
144 -773 774 0
-774 877 0
145 -774 775 0
-775 878 0
146 -775 776 0
-776 879 0
147 -776 777 0
-777 880 0
148 -777 778 0
-778 881 0
149 -778 779 0
-779 882 0
150 -779 780 0
-780 883 0
151 -780 781 0
-781 884 0
152 -781 782 0
-782 885 0
153 -782 783 0
-783 886 0
154 -783 784 0
-784 887 0
155 -784 785 0
-785 888 0
156 -785 786 0
-786 889 0
157 -786 787 0
-787 890 0
158 -787 788 0
-788 891 0
159 -788 789 0
-789 892 0
160 -789 790 0
-790 893 0
161 -790 791 0
-791 894 0
162 -791 792 0
-792 895 0
163 -792 793 0
-793 896 0
164 -793 794 0
-794 897 0
165 -794 795 0
-795 898 0
166 -795 796 0
-796 899 0
167 -796 797 0
-797 900 0
168 -797 798 0
-798 901 0
169 -798 799 0
-799 902 0
170 -799 800 0
-800 903 0
171 -800 801 0
-801 904 0
172 -801 802 0
-802 905 0
173 -802 803 0
-803 906 0
174 -803 804 0
-804 907 0
175 -804 805 0
-805 908 0
176 -805 806 0
-806 909 0
177 -806 807 0
-807 910 0
178 -807 808 0
-808 911 0
179 -808 809 0
-809 912 0
180 -809 810 0
-810 913 0
181 -810 811 0
-811 914 0
182 -811 812 0
-812 915 0
183 -812 813 0
-813 916 0
184 -813 814 0
-814 917 0
185 -814 815 0
-815 918 0
186 -815 816 0
-816 919 0
187 -816 817 0
-817 920 0
188 -817 818 0
-818 921 0
189 -818 819 0
-819 922 0
190 -819 820 0
-820 923 0
191 -820 821 0
-821 924 0
192 -821 822 0
-822 925 0
193 -822 823 0
-823 926 0
194 -823 824 0
-824 927 0
195 -824 825 0
-825 928 0
196 -825 826 0
-826 929 0
197 -826 827 0
-827 930 0
198 -827 828 0
-828 931 0
199 -828 829 0
-829 932 0
200 -829 830 0
-830 933 0
201 -830 831 0
-831 934 0
202 -831 832 0
-832 935 0
203 -832 833 0
-833 936 0
204 -833 834 0
-834 937 0
205 -834 835 0
-835 938 0
206 -835 836 0
-836 939 0
207 -836 837 0
-837 940 0
208 -837 838 0
-838 941 0
209 -838 0
107 839 0
-839 942 0
108 -839 840 0
-840 943 0
109 -840 841 0
-841 944 0
110 -841 842 0
-842 945 0
111 -842 843 0
-843 946 0
112 -843 844 0
-844 947 0
113 -844 845 0
-845 948 0
114 -845 846 0
-846 949 0
115 -846 847 0
-847 950 0
116 -847 848 0
-848 951 0
117 -848 849 0
-849 952 0
118 -849 850 0
-850 953 0
119 -850 851 0
-851 954 0
120 -851 852 0
-852 955 0
121 -852 853 0
-853 956 0
122 -853 854 0
-854 957 0
123 -854 855 0
-855 958 0
124 -855 856 0
-856 959 0
125 -856 857 0
-857 960 0
126 -857 858 0
-858 961 0
127 -858 859 0
-859 962 0
128 -859 860 0
-860 963 0
129 -860 861 0
-861 964 0
130 -861 862 0
-862 965 0
131 -862 863 0
-863 966 0
132 -863 864 0
-864 967 0
133 -864 865 0
-865 968 0
134 -865 866 0
-866 969 0
135 -866 867 0
-867 970 0
136 -867 868 0
-868 971 0
137 -868 869 0
-869 972 0
138 -869 870 0
-870 973 0
139 -870 871 0
-871 974 0
140 -871 872 0
-872 975 0
141 -872 873 0
-873 976 0
142 -873 874 0
-874 977 0
143 -874 875 0
-875 978 0
144 -875 876 0
-876 979 0
145 -876 877 0
-877 980 0
146 -877 878 0
-878 981 0
147 -878 879 0
-879 982 0
148 -879 880 0
-880 983 0
149 -880 881 0
-881 984 0
150 -881 882 0
-882 985 0
151 -882 883 0
-883 986 0
152 -883 884 0
-884 987 0
153 -884 885 0
-885 988 0
154 -885 886 0
-886 989 0
155 -886 887 0
-887 990 0
156 -887 888 0
-888 991 0
157 -888 889 0
-889 992 0
158 -889 890 0
-890 993 0
159 -890 891 0
-891 994 0
160 -891 892 0
-892 995 0
161 -892 893 0
-893 996 0
162 -893 894 0
-894 997 0
163 -894 895 0
-895 998 0
164 -895 896 0
-896 999 0
165 -896 897 0
-897 1000 0
166 -897 898 0
-898 1001 0
167 -898 899 0
-899 1002 0
168 -899 900 0
-900 1003 0
169 -900 901 0
-901 1004 0
170 -901 902 0
-902 1005 0
171 -902 903 0
-903 1006 0
172 -903 904 0
-904 1007 0
173 -904 905 0
-905 1008 0
174 -905 906 0
-906 1009 0
175 -906 907 0
-907 1010 0
176 -907 908 0
-908 1011 0
177 -908 909 0
-909 1012 0
178 -909 910 0
-910 1013 0
179 -910 911 0
-911 1014 0
180 -911 912 0
-912 1015 0
181 -912 913 0
-913 1016 0
182 -913 914 0
-914 1017 0
183 -914 915 0
-915 1018 0
184 -915 916 0
-916 1019 0
185 -916 917 0
-917 1020 0
186 -917 918 0
-918 1021 0
187 -918 919 0
-919 1022 0
188 -919 920 0
-920 1023 0
189 -920 921 0
-921 1024 0
190 -921 922 0
-922 1025 0
191 -922 923 0
-923 1026 0
192 -923 924 0
-924 1027 0
193 -924 925 0
-925 1028 0
194 -925 926 0
-926 1029 0
195 -926 927 0
-927 1030 0
196 -927 928 0
-928 1031 0
197 -928 929 0
-929 1032 0
198 -929 930 0
-930 1033 0
199 -930 931 0
-931 1034 0
200 -931 932 0
-932 1035 0
201 -932 933 0
-933 1036 0
202 -933 934 0
-934 1037 0
203 -934 935 0
-935 1038 0
204 -935 936 0
-936 1039 0
205 -936 937 0
-937 1040 0
206 -937 938 0
-938 1041 0
207 -938 939 0
-939 1042 0
208 -939 940 0
-940 1043 0
209 -940 941 0
-941 1044 0
210 -941 0
108 942 0
-942 1045 0
109 -942 943 0
-943 1046 0
110 -943 944 0
-944 1047 0
111 -944 945 0
-945 1048 0
112 -945 946 0
-946 1049 0
113 -946 947 0
-947 1050 0
114 -947 948 0
-948 1051 0
115 -948 949 0
-949 1052 0
116 -949 950 0
-950 1053 0
117 -950 951 0
-951 1054 0
118 -951 952 0
-952 1055 0
119 -952 953 0
-953 1056 0
120 -953 954 0
-954 1057 0
121 -954 955 0
-955 1058 0
122 -955 956 0
-956 1059 0
123 -956 957 0
-957 1060 0
124 -957 958 0
-958 1061 0
125 -958 959 0
-959 1062 0
126 -959 960 0
-960 1063 0
127 -960 961 0
-961 1064 0
128 -961 962 0
-962 1065 0
129 -962 963 0
-963 1066 0
130 -963 964 0
-964 1067 0
131 -964 965 0
-965 1068 0
132 -965 966 0
-966 1069 0
133 -966 967 0
-967 1070 0
134 -967 968 0
-968 1071 0
135 -968 969 0
-969 1072 0
136 -969 970 0
-970 1073 0
137 -970 971 0
-971 1074 0
138 -971 972 0
-972 1075 0
139 -972 973 0
-973 1076 0
140 -973 974 0
-974 1077 0
141 -974 975 0
-975 1078 0
142 -975 976 0
-976 1079 0
143 -976 977 0
-977 1080 0
144 -977 978 0
-978 1081 0
145 -978 979 0
-979 1082 0
146 -979 980 0
-980 1083 0
147 -980 981 0
-981 1084 0
148 -981 982 0
-982 1085 0
149 -982 983 0
-983 1086 0
150 -983 984 0
-984 1087 0
151 -984 985 0
-985 1088 0
152 -985 986 0
-986 1089 0
153 -986 987 0
-987 1090 0
154 -987 988 0
-988 1091 0
155 -988 989 0
-989 1092 0
156 -989 990 0
-990 1093 0
157 -990 991 0
-991 1094 0
158 -991 992 0
-992 1095 0
159 -992 993 0
-993 1096 0
160 -993 994 0
-994 1097 0
161 -994 995 0
-995 1098 0
162 -995 996 0
-996 1099 0
163 -996 997 0
-997 1100 0
164 -997 998 0
-998 1101 0
165 -998 999 0
-999 1102 0
166 -999 1000 0
-1000 1103 0
167 -1000 1001 0
-1001 1104 0
168 -1001 1002 0
-1002 1105 0
169 -1002 1003 0
-1003 1106 0
170 -1003 1004 0
-1004 1107 0
171 -1004 1005 0
-1005 1108 0
172 -1005 1006 0
-1006 1109 0
173 -1006 1007 0
-1007 1110 0
174 -1007 1008 0
-1008 1111 0
175 -1008 1009 0
-1009 1112 0
176 -1009 1010 0
-1010 1113 0
177 -1010 1011 0
-1011 1114 0
178 -1011 1012 0
-1012 1115 0
179 -1012 1013 0
-1013 1116 0
180 -1013 1014 0
-1014 1117 0
181 -1014 1015 0
-1015 1118 0
182 -1015 1016 0
-1016 1119 0
183 -1016 1017 0
-1017 1120 0
184 -1017 1018 0
-1018 1121 0
185 -1018 1019 0
-1019 1122 0
186 -1019 1020 0
-1020 1123 0
187 -1020 1021 0
-1021 1124 0
188 -1021 1022 0
-1022 1125 0
189 -1022 1023 0
-1023 1126 0
190 -1023 1024 0
-1024 1127 0
191 -1024 1025 0
-1025 1128 0
192 -1025 1026 0
-1026 1129 0
193 -1026 1027 0
-1027 1130 0
194 -1027 1028 0
-1028 1131 0
195 -1028 1029 0
-1029 1132 0
196 -1029 1030 0
-1030 1133 0
197 -1030 1031 0
-1031 1134 0
198 -1031 1032 0
-1032 1135 0
199 -1032 1033 0
-1033 1136 0
200 -1033 1034 0
-1034 1137 0
201 -1034 1035 0
-1035 1138 0
202 -1035 1036 0
-1036 1139 0
203 -1036 1037 0
-1037 1140 0
204 -1037 1038 0
-1038 1141 0
205 -1038 1039 0
-1039 1142 0
206 -1039 1040 0
-1040 1143 0
207 -1040 1041 0
-1041 1144 0
208 -1041 1042 0
-1042 1145 0
209 -1042 1043 0
-1043 1146 0
210 -1043 1044 0
-1044 1147 0
211 -1044 0
109 1045 0
-1045 1148 0
110 -1045 1046 0
-1046 1149 0
111 -1046 1047 0
-1047 1150 0
112 -1047 1048 0
-1048 1151 0
113 -1048 1049 0
-1049 1152 0
114 -1049 1050 0
-1050 1153 0
115 -1050 1051 0
-1051 1154 0
116 -1051 1052 0
-1052 1155 0
117 -1052 1053 0
-1053 1156 0
118 -1053 1054 0
-1054 1157 0
119 -1054 1055 0
-1055 1158 0
120 -1055 1056 0
-1056 1159 0
121 -1056 1057 0
-1057 1160 0
122 -1057 1058 0
-1058 1161 0
123 -1058 1059 0
-1059 1162 0
124 -1059 1060 0
-1060 1163 0
125 -1060 1061 0
-1061 1164 0
126 -1061 1062 0
-1062 1165 0
127 -1062 1063 0
-1063 1166 0
128 -1063 1064 0
-1064 1167 0
129 -1064 1065 0
-1065 1168 0
130 -1065 1066 0
-1066 1169 0
131 -1066 1067 0
-1067 1170 0
132 -1067 1068 0
-1068 1171 0
133 -1068 1069 0
-1069 1172 0
134 -1069 1070 0
-1070 1173 0
135 -1070 1071 0
-1071 1174 0
136 -1071 1072 0
-1072 1175 0
137 -1072 1073 0
-1073 1176 0
138 -1073 1074 0
-1074 1177 0
139 -1074 1075 0
-1075 1178 0
140 -1075 1076 0
-1076 1179 0
141 -1076 1077 0
-1077 1180 0
142 -1077 1078 0
-1078 1181 0
143 -1078 1079 0
-1079 1182 0
144 -1079 1080 0
-1080 1183 0
145 -1080 1081 0
-1081 1184 0
146 -1081 1082 0
-1082 1185 0
147 -1082 1083 0
-1083 1186 0
148 -1083 1084 0
-1084 1187 0
149 -1084 1085 0
-1085 1188 0
150 -1085 1086 0
-1086 1189 0
151 -1086 1087 0
-1087 1190 0
152 -1087 1088 0
-1088 1191 0
153 -1088 1089 0
-1089 1192 0
154 -1089 1090 0
-1090 1193 0
155 -1090 1091 0
-1091 1194 0
156 -1091 1092 0
-1092 1195 0
157 -1092 1093 0
-1093 1196 0
158 -1093 1094 0
-1094 1197 0
159 -1094 1095 0
-1095 1198 0
160 -1095 1096 0
-1096 1199 0
161 -1096 1097 0
-1097 1200 0
162 -1097 1098 0
-1098 1201 0
163 -1098 1099 0
-1099 1202 0
164 -1099 1100 0
-1100 1203 0
165 -1100 1101 0
-1101 1204 0
166 -1101 1102 0
-1102 1205 0
167 -1102 1103 0
-1103 1206 0
168 -1103 1104 0
-1104 1207 0
169 -1104 1105 0
-1105 1208 0
170 -1105 1106 0
-1106 1209 0
171 -1106 1107 0
-1107 1210 0
172 -1107 1108 0
-1108 1211 0
173 -1108 1109 0
-1109 1212 0
174 -1109 1110 0
-1110 1213 0
175 -1110 1111 0
-1111 1214 0
176 -1111 1112 0
-1112 1215 0
177 -1112 1113 0
-1113 1216 0
178 -1113 1114 0
-1114 1217 0
179 -1114 1115 0
-1115 1218 0
180 -1115 1116 0
-1116 1219 0
181 -1116 1117 0
-1117 1220 0
182 -1117 1118 0
-1118 1221 0
183 -1118 1119 0
-1119 1222 0
184 -1119 1120 0
-1120 1223 0
185 -1120 1121 0
-1121 1224 0
186 -1121 1122 0
-1122 1225 0
187 -1122 1123 0
-1123 1226 0
188 -1123 1124 0
-1124 1227 0
189 -1124 1125 0
-1125 1228 0
190 -1125 1126 0
-1126 1229 0
191 -1126 1127 0
-1127 1230 0
192 -1127 1128 0
-1128 1231 0
193 -1128 1129 0
-1129 1232 0
194 -1129 1130 0
-1130 1233 0
195 -1130 1131 0
-1131 1234 0
196 -1131 1132 0
-1132 1235 0
197 -1132 1133 0
-1133 1236 0
198 -1133 1134 0
-1134 1237 0
199 -1134 1135 0
-1135 1238 0
200 -1135 1136 0
-1136 1239 0
201 -1136 1137 0
-1137 1240 0
202 -1137 1138 0
-1138 1241 0
203 -1138 1139 0
-1139 1242 0
204 -1139 1140 0
-1140 1243 0
205 -1140 1141 0
-1141 1244 0
206 -1141 1142 0
-1142 1245 0
207 -1142 1143 0
-1143 1246 0
208 -1143 1144 0
-1144 1247 0
209 -1144 1145 0
-1145 1248 0
210 -1145 1146 0
-1146 1249 0
211 -1146 1147 0
-1147 1250 0
212 -1147 0
110 1148 0
-1148 1251 0
111 -1148 1149 0
-1149 1252 0
112 -1149 1150 0
-1150 1253 0
113 -1150 1151 0
-1151 1254 0
114 -1151 1152 0
-1152 1255 0
115 -1152 1153 0
-1153 1256 0
116 -1153 1154 0
-1154 1257 0
117 -1154 1155 0
-1155 1258 0
118 -1155 1156 0
-1156 1259 0
119 -1156 1157 0
-1157 1260 0
120 -1157 1158 0
-1158 1261 0
121 -1158 1159 0
-1159 1262 0
122 -1159 1160 0
-1160 1263 0
123 -1160 1161 0
-1161 1264 0
124 -1161 1162 0
-1162 1265 0
125 -1162 1163 0
-1163 1266 0
126 -1163 1164 0
-1164 1267 0
127 -1164 1165 0
-1165 1268 0
128 -1165 1166 0
-1166 1269 0
129 -1166 1167 0
-1167 1270 0
130 -1167 1168 0
-1168 1271 0
131 -1168 1169 0
-1169 1272 0
132 -1169 1170 0
-1170 1273 0
133 -1170 1171 0
-1171 1274 0
134 -1171 1172 0
-1172 1275 0
135 -1172 1173 0
-1173 1276 0
136 -1173 1174 0
-1174 1277 0
137 -1174 1175 0
-1175 1278 0
138 -1175 1176 0
-1176 1279 0
139 -1176 1177 0
-1177 1280 0
140 -1177 1178 0
-1178 1281 0
141 -1178 1179 0
-1179 1282 0
142 -1179 1180 0
-1180 1283 0
143 -1180 1181 0
-1181 1284 0
144 -1181 1182 0
-1182 1285 0
145 -1182 1183 0
-1183 1286 0
146 -1183 1184 0
-1184 1287 0
147 -1184 1185 0
-1185 1288 0
148 -1185 1186 0
-1186 1289 0
149 -1186 1187 0
-1187 1290 0
150 -1187 1188 0
-1188 1291 0
151 -1188 1189 0
-1189 1292 0
152 -1189 1190 0
-1190 1293 0
153 -1190 1191 0
-1191 1294 0
154 -1191 1192 0
-1192 1295 0
155 -1192 1193 0
-1193 1296 0
156 -1193 1194 0
-1194 1297 0
157 -1194 1195 0
-1195 1298 0
158 -1195 1196 0
-1196 1299 0
159 -1196 1197 0
-1197 1300 0
160 -1197 1198 0
-1198 1301 0
161 -1198 1199 0
-1199 1302 0
162 -1199 1200 0
-1200 1303 0
163 -1200 1201 0
-1201 1304 0
164 -1201 1202 0
-1202 1305 0
165 -1202 1203 0
-1203 1306 0
166 -1203 1204 0
-1204 1307 0
167 -1204 1205 0
-1205 1308 0
168 -1205 1206 0
-1206 1309 0
169 -1206 1207 0
-1207 1310 0
170 -1207 1208 0
-1208 1311 0
171 -1208 1209 0
-1209 1312 0
172 -1209 1210 0
-1210 1313 0
173 -1210 1211 0
-1211 1314 0
174 -1211 1212 0
-1212 1315 0
175 -1212 1213 0
-1213 1316 0
176 -1213 1214 0
-1214 1317 0
177 -1214 1215 0
-1215 1318 0
178 -1215 1216 0
-1216 1319 0
179 -1216 1217 0
-1217 1320 0
180 -1217 1218 0
-1218 1321 0
181 -1218 1219 0
-1219 1322 0
182 -1219 1220 0
-1220 1323 0
183 -1220 1221 0
-1221 1324 0
184 -1221 1222 0
-1222 1325 0
185 -1222 1223 0
-1223 1326 0
186 -1223 1224 0
-1224 1327 0
187 -1224 1225 0
-1225 1328 0
188 -1225 1226 0
-1226 1329 0
189 -1226 1227 0
-1227 1330 0
190 -1227 1228 0
-1228 1331 0
191 -1228 1229 0
-1229 1332 0
192 -1229 1230 0
-1230 1333 0
193 -1230 1231 0
-1231 1334 0
194 -1231 1232 0
-1232 1335 0
195 -1232 1233 0
-1233 1336 0
196 -1233 1234 0
-1234 1337 0
197 -1234 1235 0
-1235 1338 0
198 -1235 1236 0
-1236 1339 0
199 -1236 1237 0
-1237 1340 0
200 -1237 1238 0
-1238 1341 0
201 -1238 1239 0
-1239 1342 0
202 -1239 1240 0
-1240 1343 0
203 -1240 1241 0
-1241 1344 0
204 -1241 1242 0
-1242 1345 0
205 -1242 1243 0
-1243 1346 0
206 -1243 1244 0
-1244 1347 0
207 -1244 1245 0
-1245 1348 0
208 -1245 1246 0
-1246 1349 0
209 -1246 1247 0
-1247 1350 0
210 -1247 1248 0
-1248 1351 0
211 -1248 1249 0
-1249 1352 0
212 -1249 1250 0
-1250 1353 0
213 -1250 0
111 1251 0
-1251 1354 0
112 -1251 1252 0
-1252 1355 0
113 -1252 1253 0
-1253 1356 0
114 -1253 1254 0
-1254 1357 0
115 -1254 1255 0
-1255 1358 0
116 -1255 1256 0
-1256 1359 0
117 -1256 1257 0
-1257 1360 0
118 -1257 1258 0
-1258 1361 0
119 -1258 1259 0
-1259 1362 0
120 -1259 1260 0
-1260 1363 0
121 -1260 1261 0
-1261 1364 0
122 -1261 1262 0
-1262 1365 0
123 -1262 1263 0
-1263 1366 0
124 -1263 1264 0
-1264 1367 0
125 -1264 1265 0
-1265 1368 0
126 -1265 1266 0
-1266 1369 0
127 -1266 1267 0
-1267 1370 0
128 -1267 1268 0
-1268 1371 0
129 -1268 1269 0
-1269 1372 0
130 -1269 1270 0
-1270 1373 0
131 -1270 1271 0
-1271 1374 0
132 -1271 1272 0
-1272 1375 0
133 -1272 1273 0
-1273 1376 0
134 -1273 1274 0
-1274 1377 0
135 -1274 1275 0
-1275 1378 0
136 -1275 1276 0
-1276 1379 0
137 -1276 1277 0
-1277 1380 0
138 -1277 1278 0
-1278 1381 0
139 -1278 1279 0
-1279 1382 0
140 -1279 1280 0
-1280 1383 0
141 -1280 1281 0
-1281 1384 0
142 -1281 1282 0
-1282 1385 0
143 -1282 1283 0
-1283 1386 0
144 -1283 1284 0
-1284 1387 0
145 -1284 1285 0
-1285 1388 0
146 -1285 1286 0
-1286 1389 0
147 -1286 1287 0
-1287 1390 0
148 -1287 1288 0
-1288 1391 0
149 -1288 1289 0
-1289 1392 0
150 -1289 1290 0
-1290 1393 0
151 -1290 1291 0
-1291 1394 0
152 -1291 1292 0
-1292 1395 0
153 -1292 1293 0
-1293 1396 0
154 -1293 1294 0
-1294 1397 0
155 -1294 1295 0
-1295 1398 0
156 -1295 1296 0
-1296 1399 0
157 -1296 1297 0
-1297 1400 0
158 -1297 1298 0
-1298 1401 0
159 -1298 1299 0
-1299 1402 0
160 -1299 1300 0
-1300 1403 0
161 -1300 1301 0
-1301 1404 0
162 -1301 1302 0
-1302 1405 0
163 -1302 1303 0
-1303 1406 0
164 -1303 1304 0
-1304 1407 0
165 -1304 1305 0
-1305 1408 0
166 -1305 1306 0
-1306 1409 0
167 -1306 1307 0
-1307 1410 0
168 -1307 1308 0
-1308 1411 0
169 -1308 1309 0
-1309 1412 0
170 -1309 1310 0
-1310 1413 0
171 -1310 1311 0
-1311 1414 0
172 -1311 1312 0
-1312 1415 0
173 -1312 1313 0
-1313 1416 0
174 -1313 1314 0
-1314 1417 0
175 -1314 1315 0
-1315 1418 0
176 -1315 1316 0
-1316 1419 0
177 -1316 1317 0
-1317 1420 0
178 -1317 1318 0
-1318 1421 0
179 -1318 1319 0
-1319 1422 0
180 -1319 1320 0
-1320 1423 0
181 -1320 1321 0
-1321 1424 0
182 -1321 1322 0
-1322 1425 0
183 -1322 1323 0
-1323 1426 0
184 -1323 1324 0
-1324 1427 0
185 -1324 1325 0
-1325 1428 0
186 -1325 1326 0
-1326 1429 0
187 -1326 1327 0
-1327 1430 0
188 -1327 1328 0
-1328 1431 0
189 -1328 1329 0
-1329 1432 0
190 -1329 1330 0
-1330 1433 0
191 -1330 1331 0
-1331 1434 0
192 -1331 1332 0
-1332 1435 0
193 -1332 1333 0
-1333 1436 0
194 -1333 1334 0
-1334 1437 0
195 -1334 1335 0
-1335 1438 0
196 -1335 1336 0
-1336 1439 0
197 -1336 1337 0
-1337 1440 0
198 -1337 1338 0
-1338 1441 0
199 -1338 1339 0
-1339 1442 0
200 -1339 1340 0
-1340 1443 0
201 -1340 1341 0
-1341 1444 0
202 -1341 1342 0
-1342 1445 0
203 -1342 1343 0
-1343 1446 0
204 -1343 1344 0
-1344 1447 0
205 -1344 1345 0
-1345 1448 0
206 -1345 1346 0
-1346 1449 0
207 -1346 1347 0
-1347 1450 0
208 -1347 1348 0
-1348 1451 0
209 -1348 1349 0
-1349 1452 0
210 -1349 1350 0
-1350 1453 0
211 -1350 1351 0
-1351 1454 0
212 -1351 1352 0
-1352 1455 0
213 -1352 1353 0
-1353 1456 0
214 -1353 0
112 1354 0
-1354 1457 0
113 -1354 1355 0
-1355 1458 0
114 -1355 1356 0
-1356 1459 0
115 -1356 1357 0
-1357 1460 0
116 -1357 1358 0
-1358 1461 0
117 -1358 1359 0
-1359 1462 0
118 -1359 1360 0
-1360 1463 0
119 -1360 1361 0
-1361 1464 0
120 -1361 1362 0
-1362 1465 0
121 -1362 1363 0
-1363 1466 0
122 -1363 1364 0
-1364 1467 0
123 -1364 1365 0
-1365 1468 0
124 -1365 1366 0
-1366 1469 0
125 -1366 1367 0
-1367 1470 0
126 -1367 1368 0
-1368 1471 0
127 -1368 1369 0
-1369 1472 0
128 -1369 1370 0
-1370 1473 0
129 -1370 1371 0
-1371 1474 0
130 -1371 1372 0
-1372 1475 0
131 -1372 1373 0
-1373 1476 0
132 -1373 1374 0
-1374 1477 0
133 -1374 1375 0
-1375 1478 0
134 -1375 1376 0
-1376 1479 0
135 -1376 1377 0
-1377 1480 0
136 -1377 1378 0
-1378 1481 0
137 -1378 1379 0
-1379 1482 0
138 -1379 1380 0
-1380 1483 0
139 -1380 1381 0
-1381 1484 0
140 -1381 1382 0
-1382 1485 0
141 -1382 1383 0
-1383 1486 0
142 -1383 1384 0
-1384 1487 0
143 -1384 1385 0
-1385 1488 0
144 -1385 1386 0
-1386 1489 0
145 -1386 1387 0
-1387 1490 0
146 -1387 1388 0
-1388 1491 0
147 -1388 1389 0
-1389 1492 0
148 -1389 1390 0
-1390 1493 0
149 -1390 1391 0
-1391 1494 0
150 -1391 1392 0
-1392 1495 0
151 -1392 1393 0
-1393 1496 0
152 -1393 1394 0
-1394 1497 0
153 -1394 1395 0
-1395 1498 0
154 -1395 1396 0
-1396 1499 0
155 -1396 1397 0
-1397 1500 0
156 -1397 1398 0
-1398 1501 0
157 -1398 1399 0
-1399 1502 0
158 -1399 1400 0
-1400 1503 0
159 -1400 1401 0
-1401 1504 0
160 -1401 1402 0
-1402 1505 0
161 -1402 1403 0
-1403 1506 0
162 -1403 1404 0
-1404 1507 0
163 -1404 1405 0
-1405 1508 0
164 -1405 1406 0
-1406 1509 0
165 -1406 1407 0
-1407 1510 0
166 -1407 1408 0
-1408 1511 0
167 -1408 1409 0
-1409 1512 0
168 -1409 1410 0
-1410 1513 0
169 -1410 1411 0
-1411 1514 0
170 -1411 1412 0
-1412 1515 0
171 -1412 1413 0
-1413 1516 0
172 -1413 1414 0
-1414 1517 0
173 -1414 1415 0
-1415 1518 0
174 -1415 1416 0
-1416 1519 0
175 -1416 1417 0
-1417 1520 0
176 -1417 1418 0
-1418 1521 0
177 -1418 1419 0
-1419 1522 0
178 -1419 1420 0
-1420 1523 0
179 -1420 1421 0
-1421 1524 0
180 -1421 1422 0
-1422 1525 0
181 -1422 1423 0
-1423 1526 0
182 -1423 1424 0
-1424 1527 0
183 -1424 1425 0
-1425 1528 0
184 -1425 1426 0
-1426 1529 0
185 -1426 1427 0
-1427 1530 0
186 -1427 1428 0
-1428 1531 0
187 -1428 1429 0
-1429 1532 0
188 -1429 1430 0
-1430 1533 0
189 -1430 1431 0
-1431 1534 0
190 -1431 1432 0
-1432 1535 0
191 -1432 1433 0
-1433 1536 0
192 -1433 1434 0
-1434 1537 0
193 -1434 1435 0
-1435 1538 0
194 -1435 1436 0
-1436 1539 0
195 -1436 1437 0
-1437 1540 0
196 -1437 1438 0
-1438 1541 0
197 -1438 1439 0
-1439 1542 0
198 -1439 1440 0
-1440 1543 0
199 -1440 1441 0
-1441 1544 0
200 -1441 1442 0
-1442 1545 0
201 -1442 1443 0
-1443 1546 0
202 -1443 1444 0
-1444 1547 0
203 -1444 1445 0
-1445 1548 0
204 -1445 1446 0
-1446 1549 0
205 -1446 1447 0
-1447 1550 0
206 -1447 1448 0
-1448 1551 0
207 -1448 1449 0
-1449 1552 0
208 -1449 1450 0
-1450 1553 0
209 -1450 1451 0
-1451 1554 0
210 -1451 1452 0
-1452 1555 0
211 -1452 1453 0
-1453 1556 0
212 -1453 1454 0
-1454 1557 0
213 -1454 1455 0
-1455 1558 0
214 -1455 1456 0
-1456 1559 0
215 -1456 0
113 1457 0
-1457 1560 0
114 -1457 1458 0
-1458 1561 0
115 -1458 1459 0
-1459 1562 0
116 -1459 1460 0
-1460 1563 0
117 -1460 1461 0
-1461 1564 0
118 -1461 1462 0
-1462 1565 0
119 -1462 1463 0
-1463 1566 0
120 -1463 1464 0
-1464 1567 0
121 -1464 1465 0
-1465 1568 0
122 -1465 1466 0
-1466 1569 0
123 -1466 1467 0
-1467 1570 0
124 -1467 1468 0
-1468 1571 0
125 -1468 1469 0
-1469 1572 0
126 -1469 1470 0
-1470 1573 0
127 -1470 1471 0
-1471 1574 0
128 -1471 1472 0
-1472 1575 0
129 -1472 1473 0
-1473 1576 0
130 -1473 1474 0
-1474 1577 0
131 -1474 1475 0
-1475 1578 0
132 -1475 1476 0
-1476 1579 0
133 -1476 1477 0
-1477 1580 0
134 -1477 1478 0
-1478 1581 0
135 -1478 1479 0
-1479 1582 0
136 -1479 1480 0
-1480 1583 0
137 -1480 1481 0
-1481 1584 0
138 -1481 1482 0
-1482 1585 0
139 -1482 1483 0
-1483 1586 0
140 -1483 1484 0
-1484 1587 0
141 -1484 1485 0
-1485 1588 0
142 -1485 1486 0
-1486 1589 0
143 -1486 1487 0
-1487 1590 0
144 -1487 1488 0
-1488 1591 0
145 -1488 1489 0
-1489 1592 0
146 -1489 1490 0
-1490 1593 0
147 -1490 1491 0
-1491 1594 0
148 -1491 1492 0
-1492 1595 0
149 -1492 1493 0
-1493 1596 0
150 -1493 1494 0
-1494 1597 0
151 -1494 1495 0
-1495 1598 0
152 -1495 1496 0
-1496 1599 0
153 -1496 1497 0
-1497 1600 0
154 -1497 1498 0
-1498 1601 0
155 -1498 1499 0
-1499 1602 0
156 -1499 1500 0
-1500 1603 0
157 -1500 1501 0
-1501 1604 0
158 -1501 1502 0
-1502 1605 0
159 -1502 1503 0
-1503 1606 0
160 -1503 1504 0
-1504 1607 0
161 -1504 1505 0
-1505 1608 0
162 -1505 1506 0
-1506 1609 0
163 -1506 1507 0
-1507 1610 0
164 -1507 1508 0
-1508 1611 0
165 -1508 1509 0
-1509 1612 0
166 -1509 1510 0
-1510 1613 0
167 -1510 1511 0
-1511 1614 0
168 -1511 1512 0
-1512 1615 0
169 -1512 1513 0
-1513 1616 0
170 -1513 1514 0
-1514 1617 0
171 -1514 1515 0
-1515 1618 0
172 -1515 1516 0
-1516 1619 0
173 -1516 1517 0
-1517 1620 0
174 -1517 1518 0
-1518 1621 0
175 -1518 1519 0
-1519 1622 0
176 -1519 1520 0
-1520 1623 0
177 -1520 1521 0
-1521 1624 0
178 -1521 1522 0
-1522 1625 0
179 -1522 1523 0
-1523 1626 0
180 -1523 1524 0
-1524 1627 0
181 -1524 1525 0
-1525 1628 0
182 -1525 1526 0
-1526 1629 0
183 -1526 1527 0
-1527 1630 0
184 -1527 1528 0
-1528 1631 0
185 -1528 1529 0
-1529 1632 0
186 -1529 1530 0
-1530 1633 0
187 -1530 1531 0
-1531 1634 0
188 -1531 1532 0
-1532 1635 0
189 -1532 1533 0
-1533 1636 0
190 -1533 1534 0
-1534 1637 0
191 -1534 1535 0
-1535 1638 0
192 -1535 1536 0
-1536 1639 0
193 -1536 1537 0
-1537 1640 0
194 -1537 1538 0
-1538 1641 0
195 -1538 1539 0
-1539 1642 0
196 -1539 1540 0
-1540 1643 0
197 -1540 1541 0
-1541 1644 0
198 -1541 1542 0
-1542 1645 0
199 -1542 1543 0
-1543 1646 0
200 -1543 1544 0
-1544 1647 0
201 -1544 1545 0
-1545 1648 0
202 -1545 1546 0
-1546 1649 0
203 -1546 1547 0
-1547 1650 0
204 -1547 1548 0
-1548 1651 0
205 -1548 1549 0
-1549 1652 0
206 -1549 1550 0
-1550 1653 0
207 -1550 1551 0
-1551 1654 0
208 -1551 1552 0
-1552 1655 0
209 -1552 1553 0
-1553 1656 0
210 -1553 1554 0
-1554 1657 0
211 -1554 1555 0
-1555 1658 0
212 -1555 1556 0
-1556 1659 0
213 -1556 1557 0
-1557 1660 0
214 -1557 1558 0
-1558 1661 0
215 -1558 1559 0
-1559 1662 0
216 -1559 0
114 1560 0
-1560 1663 0
115 -1560 1561 0
-1561 1664 0
116 -1561 1562 0
-1562 1665 0
117 -1562 1563 0
-1563 1666 0
118 -1563 1564 0
-1564 1667 0
119 -1564 1565 0
-1565 1668 0
120 -1565 1566 0
-1566 1669 0
121 -1566 1567 0
-1567 1670 0
122 -1567 1568 0
-1568 1671 0
123 -1568 1569 0
-1569 1672 0
124 -1569 1570 0
-1570 1673 0
125 -1570 1571 0
-1571 1674 0
126 -1571 1572 0
-1572 1675 0
127 -1572 1573 0
-1573 1676 0
128 -1573 1574 0
-1574 1677 0
129 -1574 1575 0
-1575 1678 0
130 -1575 1576 0
-1576 1679 0
131 -1576 1577 0
-1577 1680 0
132 -1577 1578 0
-1578 1681 0
133 -1578 1579 0
-1579 1682 0
134 -1579 1580 0
-1580 1683 0
135 -1580 1581 0
-1581 1684 0
136 -1581 1582 0
-1582 1685 0
137 -1582 1583 0
-1583 1686 0
138 -1583 1584 0
-1584 1687 0
139 -1584 1585 0
-1585 1688 0
140 -1585 1586 0
-1586 1689 0
141 -1586 1587 0
-1587 1690 0
142 -1587 1588 0
-1588 1691 0
143 -1588 1589 0
-1589 1692 0
144 -1589 1590 0
-1590 1693 0
145 -1590 1591 0
-1591 1694 0
146 -1591 1592 0
-1592 1695 0
147 -1592 1593 0
-1593 1696 0
148 -1593 1594 0
-1594 1697 0
149 -1594 1595 0
-1595 1698 0
150 -1595 1596 0
-1596 1699 0
151 -1596 1597 0
-1597 1700 0
152 -1597 1598 0
-1598 1701 0
153 -1598 1599 0
-1599 1702 0
154 -1599 1600 0
-1600 1703 0
155 -1600 1601 0
-1601 1704 0
156 -1601 1602 0
-1602 1705 0
157 -1602 1603 0
-1603 1706 0
158 -1603 1604 0
-1604 1707 0
159 -1604 1605 0
-1605 1708 0
160 -1605 1606 0
-1606 1709 0
161 -1606 1607 0
-1607 1710 0
162 -1607 1608 0
-1608 1711 0
163 -1608 1609 0
-1609 1712 0
164 -1609 1610 0
-1610 1713 0
165 -1610 1611 0
-1611 1714 0
166 -1611 1612 0
-1612 1715 0
167 -1612 1613 0
-1613 1716 0
168 -1613 1614 0
-1614 1717 0
169 -1614 1615 0
-1615 1718 0
170 -1615 1616 0
-1616 1719 0
171 -1616 1617 0
-1617 1720 0
172 -1617 1618 0
-1618 1721 0
173 -1618 1619 0
-1619 1722 0
174 -1619 1620 0
-1620 1723 0
175 -1620 1621 0
-1621 1724 0
176 -1621 1622 0
-1622 1725 0
177 -1622 1623 0
-1623 1726 0
178 -1623 1624 0
-1624 1727 0
179 -1624 1625 0
-1625 1728 0
180 -1625 1626 0
-1626 1729 0
181 -1626 1627 0
-1627 1730 0
182 -1627 1628 0
-1628 1731 0
183 -1628 1629 0
-1629 1732 0
184 -1629 1630 0
-1630 1733 0
185 -1630 1631 0
-1631 1734 0
186 -1631 1632 0
-1632 1735 0
187 -1632 1633 0
-1633 1736 0
188 -1633 1634 0
-1634 1737 0
189 -1634 1635 0
-1635 1738 0
190 -1635 1636 0
-1636 1739 0
191 -1636 1637 0
-1637 1740 0
192 -1637 1638 0
-1638 1741 0
193 -1638 1639 0
-1639 1742 0
194 -1639 1640 0
-1640 1743 0
195 -1640 1641 0
-1641 1744 0
196 -1641 1642 0
-1642 1745 0
197 -1642 1643 0
-1643 1746 0
198 -1643 1644 0
-1644 1747 0
199 -1644 1645 0
-1645 1748 0
200 -1645 1646 0
-1646 1749 0
201 -1646 1647 0
-1647 1750 0
202 -1647 1648 0
-1648 1751 0
203 -1648 1649 0
-1649 1752 0
204 -1649 1650 0
-1650 1753 0
205 -1650 1651 0
-1651 1754 0
206 -1651 1652 0
-1652 1755 0
207 -1652 1653 0
-1653 1756 0
208 -1653 1654 0
-1654 1757 0
209 -1654 1655 0
-1655 1758 0
210 -1655 1656 0
-1656 1759 0
211 -1656 1657 0
-1657 1760 0
212 -1657 1658 0
-1658 1761 0
213 -1658 1659 0
-1659 1762 0
214 -1659 1660 0
-1660 1763 0
215 -1660 1661 0
-1661 1764 0
216 -1661 1662 0
-1662 1765 0
217 -1662 0
115 1663 0
-1663 1766 0
116 -1663 1664 0
-1664 1767 0
117 -1664 1665 0
-1665 1768 0
118 -1665 1666 0
-1666 1769 0
119 -1666 1667 0
-1667 1770 0
120 -1667 1668 0
-1668 1771 0
121 -1668 1669 0
-1669 1772 0
122 -1669 1670 0
-1670 1773 0
123 -1670 1671 0
-1671 1774 0
124 -1671 1672 0
-1672 1775 0
125 -1672 1673 0
-1673 1776 0
126 -1673 1674 0
-1674 1777 0
127 -1674 1675 0
-1675 1778 0
128 -1675 1676 0
-1676 1779 0
129 -1676 1677 0
-1677 1780 0
130 -1677 1678 0
-1678 1781 0
131 -1678 1679 0
-1679 1782 0
132 -1679 1680 0
-1680 1783 0
133 -1680 1681 0
-1681 1784 0
134 -1681 1682 0
-1682 1785 0
135 -1682 1683 0
-1683 1786 0
136 -1683 1684 0
-1684 1787 0
137 -1684 1685 0
-1685 1788 0
138 -1685 1686 0
-1686 1789 0
139 -1686 1687 0
-1687 1790 0
140 -1687 1688 0
-1688 1791 0
141 -1688 1689 0
-1689 1792 0
142 -1689 1690 0
-1690 1793 0
143 -1690 1691 0
-1691 1794 0
144 -1691 1692 0
-1692 1795 0
145 -1692 1693 0
-1693 1796 0
146 -1693 1694 0
-1694 1797 0
147 -1694 1695 0
-1695 1798 0
148 -1695 1696 0
-1696 1799 0
149 -1696 1697 0
-1697 1800 0
150 -1697 1698 0
-1698 1801 0
151 -1698 1699 0
-1699 1802 0
152 -1699 1700 0
-1700 1803 0
153 -1700 1701 0
-1701 1804 0
154 -1701 1702 0
-1702 1805 0
155 -1702 1703 0
-1703 1806 0
156 -1703 1704 0
-1704 1807 0
157 -1704 1705 0
-1705 1808 0
158 -1705 1706 0
-1706 1809 0
159 -1706 1707 0
-1707 1810 0
160 -1707 1708 0
-1708 1811 0
161 -1708 1709 0
-1709 1812 0
162 -1709 1710 0
-1710 1813 0
163 -1710 1711 0
-1711 1814 0
164 -1711 1712 0
-1712 1815 0
165 -1712 1713 0
-1713 1816 0
166 -1713 1714 0
-1714 1817 0
167 -1714 1715 0
-1715 1818 0
168 -1715 1716 0
-1716 1819 0
169 -1716 1717 0
-1717 1820 0
170 -1717 1718 0
-1718 1821 0
171 -1718 1719 0
-1719 1822 0
172 -1719 1720 0
-1720 1823 0
173 -1720 1721 0
-1721 1824 0
174 -1721 1722 0
-1722 1825 0
175 -1722 1723 0
-1723 1826 0
176 -1723 1724 0
-1724 1827 0
177 -1724 1725 0
-1725 1828 0
178 -1725 1726 0
-1726 1829 0
179 -1726 1727 0
-1727 1830 0
180 -1727 1728 0
-1728 1831 0
181 -1728 1729 0
-1729 1832 0
182 -1729 1730 0
-1730 1833 0
183 -1730 1731 0
-1731 1834 0
184 -1731 1732 0
-1732 1835 0
185 -1732 1733 0
-1733 1836 0
186 -1733 1734 0
-1734 1837 0
187 -1734 1735 0
-1735 1838 0
188 -1735 1736 0
-1736 1839 0
189 -1736 1737 0
-1737 1840 0
190 -1737 1738 0
-1738 1841 0
191 -1738 1739 0
-1739 1842 0
192 -1739 1740 0
-1740 1843 0
193 -1740 1741 0
-1741 1844 0
194 -1741 1742 0
-1742 1845 0
195 -1742 1743 0
-1743 1846 0
196 -1743 1744 0
-1744 1847 0
197 -1744 1745 0
-1745 1848 0
198 -1745 1746 0
-1746 1849 0
199 -1746 1747 0
-1747 1850 0
200 -1747 1748 0
-1748 1851 0
201 -1748 1749 0
-1749 1852 0
202 -1749 1750 0
-1750 1853 0
203 -1750 1751 0
-1751 1854 0
204 -1751 1752 0
-1752 1855 0
205 -1752 1753 0
-1753 1856 0
206 -1753 1754 0
-1754 1857 0
207 -1754 1755 0
-1755 1858 0
208 -1755 1756 0
-1756 1859 0
209 -1756 1757 0
-1757 1860 0
210 -1757 1758 0
-1758 1861 0
211 -1758 1759 0
-1759 1862 0
212 -1759 1760 0
-1760 1863 0
213 -1760 1761 0
-1761 1864 0
214 -1761 1762 0
-1762 1865 0
215 -1762 1763 0
-1763 1866 0
216 -1763 1764 0
-1764 1867 0
217 -1764 1765 0
-1765 1868 0
218 -1765 0
116 1766 0
-1766 1869 0
117 -1766 1767 0
-1767 1870 0
118 -1767 1768 0
-1768 1871 0
119 -1768 1769 0
-1769 1872 0
120 -1769 1770 0
-1770 1873 0
121 -1770 1771 0
-1771 1874 0
122 -1771 1772 0
-1772 1875 0
123 -1772 1773 0
-1773 1876 0
124 -1773 1774 0
-1774 1877 0
125 -1774 1775 0
-1775 1878 0
126 -1775 1776 0
-1776 1879 0
127 -1776 1777 0
-1777 1880 0
128 -1777 1778 0
-1778 1881 0
129 -1778 1779 0
-1779 1882 0
130 -1779 1780 0
-1780 1883 0
131 -1780 1781 0
-1781 1884 0
132 -1781 1782 0
-1782 1885 0
133 -1782 1783 0
-1783 1886 0
134 -1783 1784 0
-1784 1887 0
135 -1784 1785 0
-1785 1888 0
136 -1785 1786 0
-1786 1889 0
137 -1786 1787 0
-1787 1890 0
138 -1787 1788 0
-1788 1891 0
139 -1788 1789 0
-1789 1892 0
140 -1789 1790 0
-1790 1893 0
141 -1790 1791 0
-1791 1894 0
142 -1791 1792 0
-1792 1895 0
143 -1792 1793 0
-1793 1896 0
144 -1793 1794 0
-1794 1897 0
145 -1794 1795 0
-1795 1898 0
146 -1795 1796 0
-1796 1899 0
147 -1796 1797 0
-1797 1900 0
148 -1797 1798 0
-1798 1901 0
149 -1798 1799 0
-1799 1902 0
150 -1799 1800 0
-1800 1903 0
151 -1800 1801 0
-1801 1904 0
152 -1801 1802 0
-1802 1905 0
153 -1802 1803 0
-1803 1906 0
154 -1803 1804 0
-1804 1907 0
155 -1804 1805 0
-1805 1908 0
156 -1805 1806 0
-1806 1909 0
157 -1806 1807 0
-1807 1910 0
158 -1807 1808 0
-1808 1911 0
159 -1808 1809 0
-1809 1912 0
160 -1809 1810 0
-1810 1913 0
161 -1810 1811 0
-1811 1914 0
162 -1811 1812 0
-1812 1915 0
163 -1812 1813 0
-1813 1916 0
164 -1813 1814 0
-1814 1917 0
165 -1814 1815 0
-1815 1918 0
166 -1815 1816 0
-1816 1919 0
167 -1816 1817 0
-1817 1920 0
168 -1817 1818 0
-1818 1921 0
169 -1818 1819 0
-1819 1922 0
170 -1819 1820 0
-1820 1923 0
171 -1820 1821 0
-1821 1924 0
172 -1821 1822 0
-1822 1925 0
173 -1822 1823 0
-1823 1926 0
174 -1823 1824 0
-1824 1927 0
175 -1824 1825 0
-1825 1928 0
176 -1825 1826 0
-1826 1929 0
177 -1826 1827 0
-1827 1930 0
178 -1827 1828 0
-1828 1931 0
179 -1828 1829 0
-1829 1932 0
180 -1829 1830 0
-1830 1933 0
181 -1830 1831 0
-1831 1934 0
182 -1831 1832 0
-1832 1935 0
183 -1832 1833 0
-1833 1936 0
184 -1833 1834 0
-1834 1937 0
185 -1834 1835 0
-1835 1938 0
186 -1835 1836 0
-1836 1939 0
187 -1836 1837 0
-1837 1940 0
188 -1837 1838 0
-1838 1941 0
189 -1838 1839 0
-1839 1942 0
190 -1839 1840 0
-1840 1943 0
191 -1840 1841 0
-1841 1944 0
192 -1841 1842 0
-1842 1945 0
193 -1842 1843 0
-1843 1946 0
194 -1843 1844 0
-1844 1947 0
195 -1844 1845 0
-1845 1948 0
196 -1845 1846 0
-1846 1949 0
197 -1846 1847 0
-1847 1950 0
198 -1847 1848 0
-1848 1951 0
199 -1848 1849 0
-1849 1952 0
200 -1849 1850 0
-1850 1953 0
201 -1850 1851 0
-1851 1954 0
202 -1851 1852 0
-1852 1955 0
203 -1852 1853 0
-1853 1956 0
204 -1853 1854 0
-1854 1957 0
205 -1854 1855 0
-1855 1958 0
206 -1855 1856 0
-1856 1959 0
207 -1856 1857 0
-1857 1960 0
208 -1857 1858 0
-1858 1961 0
209 -1858 1859 0
-1859 1962 0
210 -1859 1860 0
-1860 1963 0
211 -1860 1861 0
-1861 1964 0
212 -1861 1862 0
-1862 1965 0
213 -1862 1863 0
-1863 1966 0
214 -1863 1864 0
-1864 1967 0
215 -1864 1865 0
-1865 1968 0
216 -1865 1866 0
-1866 1969 0
217 -1866 1867 0
-1867 1970 0
218 -1867 1868 0
-1868 1971 0
219 -1868 0
117 1869 0
118 -1869 1870 0
119 -1870 1871 0
120 -1871 1872 0
121 -1872 1873 0
122 -1873 1874 0
123 -1874 1875 0
124 -1875 1876 0
125 -1876 1877 0
126 -1877 1878 0
127 -1878 1879 0
128 -1879 1880 0
129 -1880 1881 0
130 -1881 1882 0
131 -1882 1883 0
132 -1883 1884 0
133 -1884 1885 0
134 -1885 1886 0
135 -1886 1887 0
136 -1887 1888 0
137 -1888 1889 0
138 -1889 1890 0
139 -1890 1891 0
140 -1891 1892 0
141 -1892 1893 0
142 -1893 1894 0
143 -1894 1895 0
144 -1895 1896 0
145 -1896 1897 0
146 -1897 1898 0
147 -1898 1899 0
148 -1899 1900 0
149 -1900 1901 0
150 -1901 1902 0
151 -1902 1903 0
152 -1903 1904 0
153 -1904 1905 0
154 -1905 1906 0
155 -1906 1907 0
156 -1907 1908 0
157 -1908 1909 0
158 -1909 1910 0
159 -1910 1911 0
160 -1911 1912 0
161 -1912 1913 0
162 -1913 1914 0
163 -1914 1915 0
164 -1915 1916 0
165 -1916 1917 0
166 -1917 1918 0
167 -1918 1919 0
168 -1919 1920 0
169 -1920 1921 0
170 -1921 1922 0
171 -1922 1923 0
172 -1923 1924 0
173 -1924 1925 0
174 -1925 1926 0
175 -1926 1927 0
176 -1927 1928 0
177 -1928 1929 0
178 -1929 1930 0
179 -1930 1931 0
180 -1931 1932 0
181 -1932 1933 0
182 -1933 1934 0
183 -1934 1935 0
184 -1935 1936 0
185 -1936 1937 0
186 -1937 1938 0
187 -1938 1939 0
188 -1939 1940 0
189 -1940 1941 0
190 -1941 1942 0
191 -1942 1943 0
192 -1943 1944 0
193 -1944 1945 0
194 -1945 1946 0
195 -1946 1947 0
196 -1947 1948 0
197 -1948 1949 0
198 -1949 1950 0
199 -1950 1951 0
200 -1951 1952 0
201 -1952 1953 0
202 -1953 1954 0
203 -1954 1955 0
204 -1955 1956 0
205 -1956 1957 0
206 -1957 1958 0
207 -1958 1959 0
208 -1959 1960 0
209 -1960 1961 0
210 -1961 1962 0
211 -1962 1963 0
212 -1963 1964 0
213 -1964 1965 0
214 -1965 1966 0
215 -1966 1967 0
216 -1967 1968 0
217 -1968 1969 0
218 -1969 1970 0
219 -1970 1971 0
220 -1971 0
